*SPEF "ieee 1481-1999"
*DESIGN "edge_sensor_glue"
*DATE "02:19:45 Monday April 06, 2026"
*VENDOR "The OpenROAD Project"
*PROGRAM "OpenROAD"
*VERSION "edf00dff99f6c40d67a30c0e22a8191c5d2ed9d6"
*DESIGN_FLOW "NAME_SCOPE LOCAL" "PIN_CAP NONE"
*DIVIDER /
*DELIMITER :
*BUS_DELIMITER []
*T_UNIT 1 NS
*C_UNIT 1 PF
*R_UNIT 1 OHM
*L_UNIT 1 HENRY

*NAME_MAP
*3 clk_o
*4 fft_done_i
*5 fft_error_i
*6 intr_spi_idle_i
*7 intr_spi_rx_full_i
*8 intr_spi_tx_empty_i
*9 intr_uart_rx_break_err_i
*10 intr_uart_rx_frame_err_i
*11 intr_uart_rx_overflow_i
*12 intr_uart_rx_parity_err_i
*13 intr_uart_rx_timeout_i
*14 intr_uart_rx_watermark_i
*15 intr_uart_tx_done_i
*16 intr_uart_tx_empty_i
*17 intr_uart_tx_watermark_i
*18 intr_vec_o[0]
*19 intr_vec_o[10]
*20 intr_vec_o[11]
*21 intr_vec_o[12]
*22 intr_vec_o[13]
*23 net238
*24 net239
*25 net240
*26 net241
*27 net242
*28 net243
*29 intr_vec_o[1]
*30 net244
*31 net26
*32 net27
*33 net28
*34 net29
*35 net30
*36 net31
*37 net32
*38 net33
*39 net34
*40 intr_vec_o[2]
*41 net35
*42 net36
*43 intr_vec_o[3]
*44 intr_vec_o[4]
*45 intr_vec_o[5]
*46 intr_vec_o[6]
*47 intr_vec_o[7]
*48 intr_vec_o[8]
*49 intr_vec_o[9]
*50 io_in[0]
*51 io_in[10]
*52 io_in[11]
*53 io_in[12]
*54 io_in[13]
*55 io_in[14]
*56 io_in[15]
*57 io_in[16]
*58 io_in[17]
*59 io_in[18]
*60 io_in[19]
*61 io_in[1]
*62 io_in[20]
*63 io_in[21]
*64 io_in[22]
*65 io_in[23]
*66 io_in[24]
*67 io_in[25]
*68 io_in[26]
*69 io_in[27]
*70 io_in[28]
*71 io_in[29]
*72 io_in[2]
*73 io_in[30]
*74 io_in[31]
*75 io_in[32]
*76 io_in[33]
*77 io_in[34]
*78 io_in[35]
*79 io_in[36]
*80 io_in[37]
*81 io_in[3]
*82 io_in[4]
*83 io_in[5]
*84 io_in[6]
*85 io_in[7]
*86 io_in[8]
*87 io_in[9]
*88 net245
*89 net250
*90 net251
*91 net252
*92 net253
*93 net254
*94 net255
*95 net256
*96 net257
*97 net258
*98 net259
*99 net37
*100 net260
*101 net261
*102 net262
*103 net263
*104 net264
*105 net265
*106 net266
*107 net267
*108 net268
*109 net269
*110 net38
*111 net270
*112 net271
*113 net272
*114 net273
*115 net274
*116 net275
*117 net276
*118 net277
*119 net39
*120 net40
*121 net246
*122 net41
*123 net247
*124 net248
*125 net249
*126 net42
*127 net47
*128 net48
*129 net49
*130 net50
*131 net51
*132 net52
*133 net53
*134 net54
*135 net55
*136 net56
*137 io_out[1]
*138 net57
*139 net58
*140 net59
*141 net60
*142 net61
*143 net62
*144 net63
*145 net64
*146 net65
*147 net66
*148 io_out[2]
*149 net67
*150 net68
*151 net69
*152 net70
*153 net71
*154 net72
*155 net73
*156 net74
*157 io_out[3]
*158 io_out[4]
*159 net43
*160 io_out[6]
*161 net44
*162 net45
*163 net46
*164 la_data_in[0]
*165 la_data_in[100]
*166 la_data_in[101]
*167 la_data_in[102]
*168 la_data_in[103]
*169 la_data_in[104]
*170 la_data_in[105]
*171 la_data_in[106]
*172 la_data_in[107]
*173 la_data_in[108]
*174 la_data_in[109]
*175 la_data_in[10]
*176 la_data_in[110]
*177 la_data_in[111]
*178 la_data_in[112]
*179 la_data_in[113]
*180 la_data_in[114]
*181 la_data_in[115]
*182 la_data_in[116]
*183 la_data_in[117]
*184 la_data_in[118]
*185 la_data_in[119]
*186 la_data_in[11]
*187 la_data_in[120]
*188 la_data_in[121]
*189 la_data_in[122]
*190 la_data_in[123]
*191 la_data_in[124]
*192 la_data_in[125]
*193 la_data_in[126]
*194 la_data_in[127]
*195 la_data_in[12]
*196 la_data_in[13]
*197 la_data_in[14]
*198 la_data_in[15]
*199 la_data_in[16]
*200 la_data_in[17]
*201 la_data_in[18]
*202 la_data_in[19]
*203 la_data_in[1]
*204 la_data_in[20]
*205 la_data_in[21]
*206 la_data_in[22]
*207 la_data_in[23]
*208 la_data_in[24]
*209 la_data_in[25]
*210 la_data_in[26]
*211 la_data_in[27]
*212 la_data_in[28]
*213 la_data_in[29]
*214 la_data_in[2]
*215 la_data_in[30]
*216 la_data_in[31]
*217 la_data_in[32]
*218 la_data_in[33]
*219 la_data_in[34]
*220 la_data_in[35]
*221 la_data_in[36]
*222 la_data_in[37]
*223 la_data_in[38]
*224 la_data_in[39]
*225 la_data_in[3]
*226 la_data_in[40]
*227 la_data_in[41]
*228 la_data_in[42]
*229 la_data_in[43]
*230 la_data_in[44]
*231 la_data_in[45]
*232 la_data_in[46]
*233 la_data_in[47]
*234 la_data_in[48]
*235 la_data_in[49]
*236 la_data_in[4]
*237 la_data_in[50]
*238 la_data_in[51]
*239 la_data_in[52]
*240 la_data_in[53]
*241 la_data_in[54]
*242 la_data_in[55]
*243 la_data_in[56]
*244 la_data_in[57]
*245 la_data_in[58]
*246 la_data_in[59]
*247 la_data_in[5]
*248 la_data_in[60]
*249 la_data_in[61]
*250 la_data_in[62]
*251 la_data_in[63]
*252 la_data_in[64]
*253 la_data_in[65]
*254 la_data_in[66]
*255 la_data_in[67]
*256 la_data_in[68]
*257 la_data_in[69]
*258 la_data_in[6]
*259 la_data_in[70]
*260 la_data_in[71]
*261 la_data_in[72]
*262 la_data_in[73]
*263 la_data_in[74]
*264 la_data_in[75]
*265 la_data_in[76]
*266 la_data_in[77]
*267 la_data_in[78]
*268 la_data_in[79]
*269 la_data_in[7]
*270 la_data_in[80]
*271 la_data_in[81]
*272 la_data_in[82]
*273 la_data_in[83]
*274 la_data_in[84]
*275 la_data_in[85]
*276 la_data_in[86]
*277 la_data_in[87]
*278 la_data_in[88]
*279 la_data_in[89]
*280 la_data_in[8]
*281 la_data_in[90]
*282 la_data_in[91]
*283 la_data_in[92]
*284 la_data_in[93]
*285 la_data_in[94]
*286 la_data_in[95]
*287 la_data_in[96]
*288 la_data_in[97]
*289 la_data_in[98]
*290 la_data_in[99]
*291 la_data_in[9]
*292 net75
*293 net175
*294 net176
*295 net177
*296 net178
*297 net179
*298 net180
*299 net181
*300 net182
*301 net183
*302 net184
*303 net85
*304 net185
*305 net186
*306 net187
*307 net188
*308 net189
*309 net190
*310 net191
*311 net192
*312 net193
*313 net194
*314 net86
*315 net195
*316 net196
*317 net197
*318 net198
*319 net199
*320 net200
*321 net201
*322 net202
*323 net87
*324 net88
*325 net89
*326 net90
*327 net91
*328 net92
*329 net93
*330 net94
*331 net76
*332 net95
*333 net96
*334 net97
*335 net98
*336 net99
*337 net100
*338 net101
*339 net102
*340 net103
*341 net104
*342 net77
*343 net105
*344 net106
*345 net107
*346 net108
*347 net109
*348 net110
*349 net111
*350 net112
*351 net113
*352 net114
*353 net78
*354 net115
*355 net116
*356 net117
*357 net118
*358 net119
*359 net120
*360 net121
*361 net122
*362 net123
*363 net124
*364 net79
*365 net125
*366 net126
*367 net127
*368 net128
*369 net129
*370 net130
*371 net131
*372 net132
*373 net133
*374 net134
*375 net80
*376 net135
*377 net136
*378 net137
*379 net138
*380 net139
*381 net140
*382 net141
*383 net142
*384 net143
*385 net144
*386 net81
*387 net145
*388 net146
*389 net147
*390 net148
*391 net149
*392 net150
*393 net151
*394 net152
*395 net153
*396 net154
*397 net82
*398 net155
*399 net156
*400 net157
*401 net158
*402 net159
*403 net160
*404 net161
*405 net162
*406 net163
*407 net164
*408 net83
*409 net165
*410 net166
*411 net167
*412 net168
*413 net169
*414 net170
*415 net171
*416 net172
*417 net173
*418 net174
*419 net84
*420 la_oenb[0]
*421 la_oenb[100]
*422 la_oenb[101]
*423 la_oenb[102]
*424 la_oenb[103]
*425 la_oenb[104]
*426 la_oenb[105]
*427 la_oenb[106]
*428 la_oenb[107]
*429 la_oenb[108]
*430 la_oenb[109]
*431 la_oenb[10]
*432 la_oenb[110]
*433 la_oenb[111]
*434 la_oenb[112]
*435 la_oenb[113]
*436 la_oenb[114]
*437 la_oenb[115]
*438 la_oenb[116]
*439 la_oenb[117]
*440 la_oenb[118]
*441 la_oenb[119]
*442 la_oenb[11]
*443 la_oenb[120]
*444 la_oenb[121]
*445 la_oenb[122]
*446 la_oenb[123]
*447 la_oenb[124]
*448 la_oenb[125]
*449 la_oenb[126]
*450 la_oenb[127]
*451 la_oenb[12]
*452 la_oenb[13]
*453 la_oenb[14]
*454 la_oenb[15]
*455 la_oenb[16]
*456 la_oenb[17]
*457 la_oenb[18]
*458 la_oenb[19]
*459 la_oenb[1]
*460 la_oenb[20]
*461 la_oenb[21]
*462 la_oenb[22]
*463 la_oenb[23]
*464 la_oenb[24]
*465 la_oenb[25]
*466 la_oenb[26]
*467 la_oenb[27]
*468 la_oenb[28]
*469 la_oenb[29]
*470 la_oenb[2]
*471 la_oenb[30]
*472 la_oenb[31]
*473 la_oenb[32]
*474 la_oenb[33]
*475 la_oenb[34]
*476 la_oenb[35]
*477 la_oenb[36]
*478 la_oenb[37]
*479 la_oenb[38]
*480 la_oenb[39]
*481 la_oenb[3]
*482 la_oenb[40]
*483 la_oenb[41]
*484 la_oenb[42]
*485 la_oenb[43]
*486 la_oenb[44]
*487 la_oenb[45]
*488 la_oenb[46]
*489 la_oenb[47]
*490 la_oenb[48]
*491 la_oenb[49]
*492 la_oenb[4]
*493 la_oenb[50]
*494 la_oenb[51]
*495 la_oenb[52]
*496 la_oenb[53]
*497 la_oenb[54]
*498 la_oenb[55]
*499 la_oenb[56]
*500 la_oenb[57]
*501 la_oenb[58]
*502 la_oenb[59]
*503 la_oenb[5]
*504 la_oenb[60]
*505 la_oenb[61]
*506 la_oenb[62]
*507 la_oenb[63]
*508 la_oenb[64]
*509 la_oenb[65]
*510 la_oenb[66]
*511 la_oenb[67]
*512 la_oenb[68]
*513 la_oenb[69]
*514 la_oenb[6]
*515 la_oenb[70]
*516 la_oenb[71]
*517 la_oenb[72]
*518 la_oenb[73]
*519 la_oenb[74]
*520 la_oenb[75]
*521 la_oenb[76]
*522 la_oenb[77]
*523 la_oenb[78]
*524 la_oenb[79]
*525 la_oenb[7]
*526 la_oenb[80]
*527 la_oenb[81]
*528 la_oenb[82]
*529 la_oenb[83]
*530 la_oenb[84]
*531 la_oenb[85]
*532 la_oenb[86]
*533 la_oenb[87]
*534 la_oenb[88]
*535 la_oenb[89]
*536 la_oenb[8]
*537 la_oenb[90]
*538 la_oenb[91]
*539 la_oenb[92]
*540 la_oenb[93]
*541 la_oenb[94]
*542 la_oenb[95]
*543 la_oenb[96]
*544 la_oenb[97]
*545 la_oenb[98]
*546 la_oenb[99]
*547 la_oenb[9]
*548 plic_irq_i
*549 rst_no
*550 spi_cs_ni
*551 spi_miso_o
*552 spi_mosi_i
*553 spi_sclk_i
*554 uart_rx_o
*555 uart_tx_i
*556 user_irq[0]
*557 net203
*558 net204
*559 wb_clk_i
*560 wb_rst_i
*561 net205
*562 wbs_adr_i[0]
*563 wbs_adr_i[10]
*564 wbs_adr_i[11]
*565 wbs_adr_i[12]
*566 wbs_adr_i[13]
*567 wbs_adr_i[14]
*568 wbs_adr_i[15]
*569 wbs_adr_i[16]
*570 wbs_adr_i[17]
*571 wbs_adr_i[18]
*572 wbs_adr_i[19]
*573 wbs_adr_i[1]
*574 wbs_adr_i[20]
*575 wbs_adr_i[21]
*576 wbs_adr_i[22]
*577 wbs_adr_i[23]
*578 wbs_adr_i[24]
*579 wbs_adr_i[25]
*580 wbs_adr_i[26]
*581 wbs_adr_i[27]
*582 wbs_adr_i[28]
*583 wbs_adr_i[29]
*584 wbs_adr_i[2]
*585 wbs_adr_i[30]
*586 wbs_adr_i[31]
*587 wbs_adr_i[3]
*588 wbs_adr_i[4]
*589 wbs_adr_i[5]
*590 wbs_adr_i[6]
*591 wbs_adr_i[7]
*592 wbs_adr_i[8]
*593 wbs_adr_i[9]
*594 wbs_cyc_i
*595 wbs_dat_i[0]
*596 wbs_dat_i[10]
*597 wbs_dat_i[11]
*598 wbs_dat_i[12]
*599 wbs_dat_i[13]
*600 wbs_dat_i[14]
*601 wbs_dat_i[15]
*602 wbs_dat_i[16]
*603 wbs_dat_i[17]
*604 wbs_dat_i[18]
*605 wbs_dat_i[19]
*606 wbs_dat_i[1]
*607 wbs_dat_i[20]
*608 wbs_dat_i[21]
*609 wbs_dat_i[22]
*610 wbs_dat_i[23]
*611 wbs_dat_i[24]
*612 wbs_dat_i[25]
*613 wbs_dat_i[26]
*614 wbs_dat_i[27]
*615 wbs_dat_i[28]
*616 wbs_dat_i[29]
*617 wbs_dat_i[2]
*618 wbs_dat_i[30]
*619 wbs_dat_i[31]
*620 wbs_dat_i[3]
*621 wbs_dat_i[4]
*622 wbs_dat_i[5]
*623 wbs_dat_i[6]
*624 wbs_dat_i[7]
*625 wbs_dat_i[8]
*626 wbs_dat_i[9]
*627 net206
*628 net216
*629 net217
*630 net218
*631 net219
*632 net220
*633 net221
*634 net222
*635 net223
*636 net224
*637 net225
*638 net207
*639 net226
*640 net227
*641 net228
*642 net229
*643 net230
*644 net231
*645 net232
*646 net233
*647 net234
*648 net235
*649 net208
*650 net236
*651 net237
*652 net209
*653 net210
*654 net211
*655 net212
*656 net213
*657 net214
*658 net215
*659 wbs_sel_i[0]
*660 wbs_sel_i[1]
*661 wbs_sel_i[2]
*662 wbs_sel_i[3]
*663 wbs_stb_i
*664 wbs_we_i
*665 net1
*666 net10
*667 net11
*668 net12
*669 net13
*670 net14
*671 net15
*672 net16
*673 net17
*674 net18
*675 net19
*676 net2
*677 net20
*678 net21
*679 net22
*680 net23
*681 net24
*682 net25
*683 net3
*684 net4
*685 net5
*686 net6
*687 net7
*688 net8
*689 net9
*690 ANTENNA_1
*691 ANTENNA_2
*692 ANTENNA_3
*693 ANTENNA_4
*694 ANTENNA_5
*695 FILLER_0_1005
*696 FILLER_0_1009
*697 FILLER_0_1021
*698 FILLER_0_1033
*699 FILLER_0_1037
*700 FILLER_0_1049
*701 FILLER_0_1061
*702 FILLER_0_1065
*703 FILLER_0_1077
*704 FILLER_0_1089
*705 FILLER_0_109
*706 FILLER_0_1093
*707 FILLER_0_1105
*708 FILLER_0_1117
*709 FILLER_0_1121
*710 FILLER_0_113
*711 FILLER_0_1133
*712 FILLER_0_1145
*713 FILLER_0_1149
*714 FILLER_0_1161
*715 FILLER_0_1173
*716 FILLER_0_1177
*717 FILLER_0_1189
*718 FILLER_0_1201
*719 FILLER_0_1205
*720 FILLER_0_1217
*721 FILLER_0_1229
*722 FILLER_0_1233
*723 FILLER_0_1245
*724 FILLER_0_125
*725 FILLER_0_1257
*726 FILLER_0_1261
*727 FILLER_0_1273
*728 FILLER_0_137
*729 FILLER_0_141
*730 FILLER_0_15
*731 FILLER_0_153
*732 FILLER_0_165
*733 FILLER_0_169
*734 FILLER_0_181
*735 FILLER_0_193
*736 FILLER_0_197
*737 FILLER_0_209
*738 FILLER_0_221
*739 FILLER_0_225
*740 FILLER_0_237
*741 FILLER_0_249
*742 FILLER_0_253
*743 FILLER_0_265
*744 FILLER_0_27
*745 FILLER_0_277
*746 FILLER_0_281
*747 FILLER_0_29
*748 FILLER_0_293
*749 FILLER_0_3
*750 FILLER_0_305
*751 FILLER_0_309
*752 FILLER_0_321
*753 FILLER_0_333
*754 FILLER_0_337
*755 FILLER_0_349
*756 FILLER_0_361
*757 FILLER_0_365
*758 FILLER_0_377
*759 FILLER_0_389
*760 FILLER_0_393
*761 FILLER_0_405
*762 FILLER_0_41
*763 FILLER_0_417
*764 FILLER_0_421
*765 FILLER_0_433
*766 FILLER_0_445
*767 FILLER_0_449
*768 FILLER_0_461
*769 FILLER_0_473
*770 FILLER_0_477
*771 FILLER_0_489
*772 FILLER_0_501
*773 FILLER_0_505
*774 FILLER_0_517
*775 FILLER_0_529
*776 FILLER_0_53
*777 FILLER_0_533
*778 FILLER_0_538
*779 FILLER_0_550
*780 FILLER_0_559
*781 FILLER_0_561
*782 FILLER_0_57
*783 FILLER_0_573
*784 FILLER_0_580
*785 FILLER_0_589
*786 FILLER_0_594
*787 FILLER_0_606
*788 FILLER_0_614
*789 FILLER_0_617
*790 FILLER_0_622
*791 FILLER_0_630
*792 FILLER_0_637
*793 FILLER_0_643
*794 FILLER_0_645
*795 FILLER_0_650
*796 FILLER_0_657
*797 FILLER_0_664
*798 FILLER_0_671
*799 FILLER_0_673
*800 FILLER_0_681
*801 FILLER_0_685
*802 FILLER_0_69
*803 FILLER_0_692
*804 FILLER_0_701
*805 FILLER_0_706
*806 FILLER_0_713
*807 FILLER_0_721
*808 FILLER_0_727
*809 FILLER_0_729
*810 FILLER_0_734
*811 FILLER_0_741
*812 FILLER_0_753
*813 FILLER_0_757
*814 FILLER_0_769
*815 FILLER_0_781
*816 FILLER_0_785
*817 FILLER_0_797
*818 FILLER_0_809
*819 FILLER_0_81
*820 FILLER_0_813
*821 FILLER_0_825
*822 FILLER_0_837
*823 FILLER_0_841
*824 FILLER_0_85
*825 FILLER_0_853
*826 FILLER_0_865
*827 FILLER_0_869
*828 FILLER_0_881
*829 FILLER_0_893
*830 FILLER_0_897
*831 FILLER_0_909
*832 FILLER_0_921
*833 FILLER_0_925
*834 FILLER_0_937
*835 FILLER_0_949
*836 FILLER_0_953
*837 FILLER_0_965
*838 FILLER_0_97
*839 FILLER_0_977
*840 FILLER_0_981
*841 FILLER_0_993
*842 FILLER_100_1005
*843 FILLER_100_1017
*844 FILLER_100_1029
*845 FILLER_100_1035
*846 FILLER_100_1037
*847 FILLER_100_1049
*848 FILLER_100_1061
*849 FILLER_100_1073
*850 FILLER_100_1085
*851 FILLER_100_109
*852 FILLER_100_1091
*853 FILLER_100_1093
*854 FILLER_100_1105
*855 FILLER_100_1117
*856 FILLER_100_1129
*857 FILLER_100_1141
*858 FILLER_100_1147
*859 FILLER_100_1149
*860 FILLER_100_1161
*861 FILLER_100_1173
*862 FILLER_100_1185
*863 FILLER_100_1197
*864 FILLER_100_1203
*865 FILLER_100_1205
*866 FILLER_100_121
*867 FILLER_100_1217
*868 FILLER_100_1229
*869 FILLER_100_1241
*870 FILLER_100_1253
*871 FILLER_100_1259
*872 FILLER_100_1261
*873 FILLER_100_1276
*874 FILLER_100_133
*875 FILLER_100_139
*876 FILLER_100_141
*877 FILLER_100_153
*878 FILLER_100_165
*879 FILLER_100_177
*880 FILLER_100_189
*881 FILLER_100_19
*882 FILLER_100_195
*883 FILLER_100_197
*884 FILLER_100_209
*885 FILLER_100_221
*886 FILLER_100_233
*887 FILLER_100_245
*888 FILLER_100_251
*889 FILLER_100_253
*890 FILLER_100_265
*891 FILLER_100_27
*892 FILLER_100_277
*893 FILLER_100_289
*894 FILLER_100_29
*895 FILLER_100_3
*896 FILLER_100_301
*897 FILLER_100_307
*898 FILLER_100_309
*899 FILLER_100_321
*900 FILLER_100_333
*901 FILLER_100_345
*902 FILLER_100_357
*903 FILLER_100_363
*904 FILLER_100_365
*905 FILLER_100_377
*906 FILLER_100_389
*907 FILLER_100_401
*908 FILLER_100_41
*909 FILLER_100_413
*910 FILLER_100_419
*911 FILLER_100_421
*912 FILLER_100_433
*913 FILLER_100_445
*914 FILLER_100_457
*915 FILLER_100_469
*916 FILLER_100_475
*917 FILLER_100_477
*918 FILLER_100_489
*919 FILLER_100_501
*920 FILLER_100_513
*921 FILLER_100_525
*922 FILLER_100_53
*923 FILLER_100_531
*924 FILLER_100_533
*925 FILLER_100_545
*926 FILLER_100_557
*927 FILLER_100_569
*928 FILLER_100_581
*929 FILLER_100_587
*930 FILLER_100_589
*931 FILLER_100_601
*932 FILLER_100_613
*933 FILLER_100_625
*934 FILLER_100_637
*935 FILLER_100_643
*936 FILLER_100_645
*937 FILLER_100_65
*938 FILLER_100_657
*939 FILLER_100_669
*940 FILLER_100_681
*941 FILLER_100_693
*942 FILLER_100_699
*943 FILLER_100_7
*944 FILLER_100_701
*945 FILLER_100_713
*946 FILLER_100_725
*947 FILLER_100_737
*948 FILLER_100_749
*949 FILLER_100_755
*950 FILLER_100_757
*951 FILLER_100_769
*952 FILLER_100_77
*953 FILLER_100_781
*954 FILLER_100_793
*955 FILLER_100_805
*956 FILLER_100_811
*957 FILLER_100_813
*958 FILLER_100_825
*959 FILLER_100_83
*960 FILLER_100_837
*961 FILLER_100_849
*962 FILLER_100_85
*963 FILLER_100_861
*964 FILLER_100_867
*965 FILLER_100_869
*966 FILLER_100_881
*967 FILLER_100_893
*968 FILLER_100_905
*969 FILLER_100_917
*970 FILLER_100_923
*971 FILLER_100_925
*972 FILLER_100_937
*973 FILLER_100_949
*974 FILLER_100_961
*975 FILLER_100_97
*976 FILLER_100_973
*977 FILLER_100_979
*978 FILLER_100_981
*979 FILLER_100_993
*980 FILLER_101_1001
*981 FILLER_101_1007
*982 FILLER_101_1009
*983 FILLER_101_1021
*984 FILLER_101_1033
*985 FILLER_101_1045
*986 FILLER_101_105
*987 FILLER_101_1057
*988 FILLER_101_1063
*989 FILLER_101_1065
*990 FILLER_101_1077
*991 FILLER_101_1089
*992 FILLER_101_1101
*993 FILLER_101_111
*994 FILLER_101_1113
*995 FILLER_101_1119
*996 FILLER_101_1121
*997 FILLER_101_113
*998 FILLER_101_1133
*999 FILLER_101_1145
*1000 FILLER_101_1157
*1001 FILLER_101_1169
*1002 FILLER_101_1175
*1003 FILLER_101_1177
*1004 FILLER_101_1189
*1005 FILLER_101_1201
*1006 FILLER_101_1213
*1007 FILLER_101_1225
*1008 FILLER_101_1231
*1009 FILLER_101_1233
*1010 FILLER_101_1245
*1011 FILLER_101_125
*1012 FILLER_101_1257
*1013 FILLER_101_1269
*1014 FILLER_101_1276
*1015 FILLER_101_137
*1016 FILLER_101_149
*1017 FILLER_101_15
*1018 FILLER_101_161
*1019 FILLER_101_167
*1020 FILLER_101_169
*1021 FILLER_101_181
*1022 FILLER_101_193
*1023 FILLER_101_205
*1024 FILLER_101_217
*1025 FILLER_101_223
*1026 FILLER_101_225
*1027 FILLER_101_237
*1028 FILLER_101_249
*1029 FILLER_101_261
*1030 FILLER_101_27
*1031 FILLER_101_273
*1032 FILLER_101_279
*1033 FILLER_101_281
*1034 FILLER_101_293
*1035 FILLER_101_3
*1036 FILLER_101_305
*1037 FILLER_101_317
*1038 FILLER_101_329
*1039 FILLER_101_335
*1040 FILLER_101_337
*1041 FILLER_101_349
*1042 FILLER_101_361
*1043 FILLER_101_373
*1044 FILLER_101_385
*1045 FILLER_101_39
*1046 FILLER_101_391
*1047 FILLER_101_393
*1048 FILLER_101_405
*1049 FILLER_101_417
*1050 FILLER_101_429
*1051 FILLER_101_441
*1052 FILLER_101_447
*1053 FILLER_101_449
*1054 FILLER_101_461
*1055 FILLER_101_473
*1056 FILLER_101_485
*1057 FILLER_101_497
*1058 FILLER_101_503
*1059 FILLER_101_505
*1060 FILLER_101_51
*1061 FILLER_101_517
*1062 FILLER_101_529
*1063 FILLER_101_541
*1064 FILLER_101_55
*1065 FILLER_101_553
*1066 FILLER_101_559
*1067 FILLER_101_561
*1068 FILLER_101_57
*1069 FILLER_101_573
*1070 FILLER_101_585
*1071 FILLER_101_597
*1072 FILLER_101_609
*1073 FILLER_101_615
*1074 FILLER_101_617
*1075 FILLER_101_629
*1076 FILLER_101_641
*1077 FILLER_101_653
*1078 FILLER_101_665
*1079 FILLER_101_671
*1080 FILLER_101_673
*1081 FILLER_101_685
*1082 FILLER_101_69
*1083 FILLER_101_697
*1084 FILLER_101_709
*1085 FILLER_101_721
*1086 FILLER_101_727
*1087 FILLER_101_729
*1088 FILLER_101_741
*1089 FILLER_101_753
*1090 FILLER_101_765
*1091 FILLER_101_777
*1092 FILLER_101_783
*1093 FILLER_101_785
*1094 FILLER_101_797
*1095 FILLER_101_8
*1096 FILLER_101_809
*1097 FILLER_101_81
*1098 FILLER_101_821
*1099 FILLER_101_833
*1100 FILLER_101_839
*1101 FILLER_101_841
*1102 FILLER_101_853
*1103 FILLER_101_865
*1104 FILLER_101_877
*1105 FILLER_101_889
*1106 FILLER_101_895
*1107 FILLER_101_897
*1108 FILLER_101_909
*1109 FILLER_101_921
*1110 FILLER_101_93
*1111 FILLER_101_933
*1112 FILLER_101_945
*1113 FILLER_101_951
*1114 FILLER_101_953
*1115 FILLER_101_965
*1116 FILLER_101_977
*1117 FILLER_101_989
*1118 FILLER_102_1005
*1119 FILLER_102_1017
*1120 FILLER_102_1029
*1121 FILLER_102_1035
*1122 FILLER_102_1037
*1123 FILLER_102_1049
*1124 FILLER_102_1061
*1125 FILLER_102_1073
*1126 FILLER_102_1085
*1127 FILLER_102_109
*1128 FILLER_102_1091
*1129 FILLER_102_1093
*1130 FILLER_102_1105
*1131 FILLER_102_1117
*1132 FILLER_102_1129
*1133 FILLER_102_1141
*1134 FILLER_102_1147
*1135 FILLER_102_1149
*1136 FILLER_102_1161
*1137 FILLER_102_1173
*1138 FILLER_102_1185
*1139 FILLER_102_1197
*1140 FILLER_102_1203
*1141 FILLER_102_1205
*1142 FILLER_102_121
*1143 FILLER_102_1217
*1144 FILLER_102_1229
*1145 FILLER_102_1241
*1146 FILLER_102_1253
*1147 FILLER_102_1259
*1148 FILLER_102_1261
*1149 FILLER_102_1276
*1150 FILLER_102_133
*1151 FILLER_102_139
*1152 FILLER_102_141
*1153 FILLER_102_15
*1154 FILLER_102_153
*1155 FILLER_102_165
*1156 FILLER_102_177
*1157 FILLER_102_189
*1158 FILLER_102_195
*1159 FILLER_102_197
*1160 FILLER_102_209
*1161 FILLER_102_221
*1162 FILLER_102_233
*1163 FILLER_102_245
*1164 FILLER_102_251
*1165 FILLER_102_253
*1166 FILLER_102_265
*1167 FILLER_102_27
*1168 FILLER_102_277
*1169 FILLER_102_289
*1170 FILLER_102_29
*1171 FILLER_102_3
*1172 FILLER_102_301
*1173 FILLER_102_307
*1174 FILLER_102_309
*1175 FILLER_102_321
*1176 FILLER_102_333
*1177 FILLER_102_345
*1178 FILLER_102_357
*1179 FILLER_102_363
*1180 FILLER_102_365
*1181 FILLER_102_377
*1182 FILLER_102_389
*1183 FILLER_102_401
*1184 FILLER_102_41
*1185 FILLER_102_413
*1186 FILLER_102_419
*1187 FILLER_102_421
*1188 FILLER_102_433
*1189 FILLER_102_445
*1190 FILLER_102_457
*1191 FILLER_102_469
*1192 FILLER_102_475
*1193 FILLER_102_477
*1194 FILLER_102_489
*1195 FILLER_102_501
*1196 FILLER_102_513
*1197 FILLER_102_525
*1198 FILLER_102_53
*1199 FILLER_102_531
*1200 FILLER_102_533
*1201 FILLER_102_545
*1202 FILLER_102_557
*1203 FILLER_102_569
*1204 FILLER_102_581
*1205 FILLER_102_587
*1206 FILLER_102_589
*1207 FILLER_102_601
*1208 FILLER_102_613
*1209 FILLER_102_625
*1210 FILLER_102_637
*1211 FILLER_102_643
*1212 FILLER_102_645
*1213 FILLER_102_65
*1214 FILLER_102_657
*1215 FILLER_102_669
*1216 FILLER_102_681
*1217 FILLER_102_693
*1218 FILLER_102_699
*1219 FILLER_102_701
*1220 FILLER_102_713
*1221 FILLER_102_725
*1222 FILLER_102_737
*1223 FILLER_102_749
*1224 FILLER_102_755
*1225 FILLER_102_757
*1226 FILLER_102_769
*1227 FILLER_102_77
*1228 FILLER_102_781
*1229 FILLER_102_793
*1230 FILLER_102_805
*1231 FILLER_102_811
*1232 FILLER_102_813
*1233 FILLER_102_825
*1234 FILLER_102_83
*1235 FILLER_102_837
*1236 FILLER_102_849
*1237 FILLER_102_85
*1238 FILLER_102_861
*1239 FILLER_102_867
*1240 FILLER_102_869
*1241 FILLER_102_881
*1242 FILLER_102_893
*1243 FILLER_102_905
*1244 FILLER_102_917
*1245 FILLER_102_923
*1246 FILLER_102_925
*1247 FILLER_102_937
*1248 FILLER_102_949
*1249 FILLER_102_961
*1250 FILLER_102_97
*1251 FILLER_102_973
*1252 FILLER_102_979
*1253 FILLER_102_981
*1254 FILLER_102_993
*1255 FILLER_103_1001
*1256 FILLER_103_1007
*1257 FILLER_103_1009
*1258 FILLER_103_1021
*1259 FILLER_103_1033
*1260 FILLER_103_1045
*1261 FILLER_103_105
*1262 FILLER_103_1057
*1263 FILLER_103_1063
*1264 FILLER_103_1065
*1265 FILLER_103_1077
*1266 FILLER_103_1089
*1267 FILLER_103_1101
*1268 FILLER_103_111
*1269 FILLER_103_1113
*1270 FILLER_103_1119
*1271 FILLER_103_1121
*1272 FILLER_103_113
*1273 FILLER_103_1133
*1274 FILLER_103_1145
*1275 FILLER_103_1157
*1276 FILLER_103_1169
*1277 FILLER_103_1175
*1278 FILLER_103_1177
*1279 FILLER_103_1189
*1280 FILLER_103_1201
*1281 FILLER_103_1213
*1282 FILLER_103_1225
*1283 FILLER_103_1231
*1284 FILLER_103_1233
*1285 FILLER_103_1245
*1286 FILLER_103_125
*1287 FILLER_103_1257
*1288 FILLER_103_1269
*1289 FILLER_103_137
*1290 FILLER_103_149
*1291 FILLER_103_15
*1292 FILLER_103_161
*1293 FILLER_103_167
*1294 FILLER_103_169
*1295 FILLER_103_181
*1296 FILLER_103_193
*1297 FILLER_103_205
*1298 FILLER_103_217
*1299 FILLER_103_223
*1300 FILLER_103_225
*1301 FILLER_103_237
*1302 FILLER_103_249
*1303 FILLER_103_261
*1304 FILLER_103_27
*1305 FILLER_103_273
*1306 FILLER_103_279
*1307 FILLER_103_281
*1308 FILLER_103_293
*1309 FILLER_103_3
*1310 FILLER_103_305
*1311 FILLER_103_317
*1312 FILLER_103_329
*1313 FILLER_103_335
*1314 FILLER_103_337
*1315 FILLER_103_349
*1316 FILLER_103_361
*1317 FILLER_103_373
*1318 FILLER_103_385
*1319 FILLER_103_39
*1320 FILLER_103_391
*1321 FILLER_103_393
*1322 FILLER_103_405
*1323 FILLER_103_417
*1324 FILLER_103_429
*1325 FILLER_103_441
*1326 FILLER_103_447
*1327 FILLER_103_449
*1328 FILLER_103_461
*1329 FILLER_103_473
*1330 FILLER_103_485
*1331 FILLER_103_497
*1332 FILLER_103_503
*1333 FILLER_103_505
*1334 FILLER_103_51
*1335 FILLER_103_517
*1336 FILLER_103_529
*1337 FILLER_103_541
*1338 FILLER_103_55
*1339 FILLER_103_553
*1340 FILLER_103_559
*1341 FILLER_103_561
*1342 FILLER_103_57
*1343 FILLER_103_573
*1344 FILLER_103_585
*1345 FILLER_103_597
*1346 FILLER_103_609
*1347 FILLER_103_615
*1348 FILLER_103_617
*1349 FILLER_103_629
*1350 FILLER_103_641
*1351 FILLER_103_653
*1352 FILLER_103_665
*1353 FILLER_103_671
*1354 FILLER_103_673
*1355 FILLER_103_685
*1356 FILLER_103_69
*1357 FILLER_103_697
*1358 FILLER_103_709
*1359 FILLER_103_721
*1360 FILLER_103_727
*1361 FILLER_103_729
*1362 FILLER_103_741
*1363 FILLER_103_753
*1364 FILLER_103_765
*1365 FILLER_103_777
*1366 FILLER_103_783
*1367 FILLER_103_785
*1368 FILLER_103_797
*1369 FILLER_103_809
*1370 FILLER_103_81
*1371 FILLER_103_821
*1372 FILLER_103_833
*1373 FILLER_103_839
*1374 FILLER_103_841
*1375 FILLER_103_853
*1376 FILLER_103_865
*1377 FILLER_103_877
*1378 FILLER_103_889
*1379 FILLER_103_895
*1380 FILLER_103_897
*1381 FILLER_103_909
*1382 FILLER_103_921
*1383 FILLER_103_93
*1384 FILLER_103_933
*1385 FILLER_103_945
*1386 FILLER_103_951
*1387 FILLER_103_953
*1388 FILLER_103_965
*1389 FILLER_103_977
*1390 FILLER_103_989
*1391 FILLER_104_1005
*1392 FILLER_104_1017
*1393 FILLER_104_1029
*1394 FILLER_104_1035
*1395 FILLER_104_1037
*1396 FILLER_104_1049
*1397 FILLER_104_1061
*1398 FILLER_104_1073
*1399 FILLER_104_1085
*1400 FILLER_104_109
*1401 FILLER_104_1091
*1402 FILLER_104_1093
*1403 FILLER_104_1105
*1404 FILLER_104_1117
*1405 FILLER_104_1129
*1406 FILLER_104_1141
*1407 FILLER_104_1147
*1408 FILLER_104_1149
*1409 FILLER_104_1161
*1410 FILLER_104_1173
*1411 FILLER_104_1185
*1412 FILLER_104_1197
*1413 FILLER_104_1203
*1414 FILLER_104_1205
*1415 FILLER_104_121
*1416 FILLER_104_1217
*1417 FILLER_104_1229
*1418 FILLER_104_1241
*1419 FILLER_104_1253
*1420 FILLER_104_1259
*1421 FILLER_104_1261
*1422 FILLER_104_1276
*1423 FILLER_104_133
*1424 FILLER_104_139
*1425 FILLER_104_141
*1426 FILLER_104_153
*1427 FILLER_104_165
*1428 FILLER_104_177
*1429 FILLER_104_189
*1430 FILLER_104_19
*1431 FILLER_104_195
*1432 FILLER_104_197
*1433 FILLER_104_209
*1434 FILLER_104_221
*1435 FILLER_104_233
*1436 FILLER_104_245
*1437 FILLER_104_251
*1438 FILLER_104_253
*1439 FILLER_104_265
*1440 FILLER_104_27
*1441 FILLER_104_277
*1442 FILLER_104_289
*1443 FILLER_104_29
*1444 FILLER_104_3
*1445 FILLER_104_301
*1446 FILLER_104_307
*1447 FILLER_104_309
*1448 FILLER_104_321
*1449 FILLER_104_333
*1450 FILLER_104_345
*1451 FILLER_104_357
*1452 FILLER_104_363
*1453 FILLER_104_365
*1454 FILLER_104_377
*1455 FILLER_104_389
*1456 FILLER_104_401
*1457 FILLER_104_41
*1458 FILLER_104_413
*1459 FILLER_104_419
*1460 FILLER_104_421
*1461 FILLER_104_433
*1462 FILLER_104_445
*1463 FILLER_104_457
*1464 FILLER_104_469
*1465 FILLER_104_475
*1466 FILLER_104_477
*1467 FILLER_104_489
*1468 FILLER_104_501
*1469 FILLER_104_513
*1470 FILLER_104_525
*1471 FILLER_104_53
*1472 FILLER_104_531
*1473 FILLER_104_533
*1474 FILLER_104_545
*1475 FILLER_104_557
*1476 FILLER_104_569
*1477 FILLER_104_581
*1478 FILLER_104_587
*1479 FILLER_104_589
*1480 FILLER_104_601
*1481 FILLER_104_613
*1482 FILLER_104_625
*1483 FILLER_104_637
*1484 FILLER_104_643
*1485 FILLER_104_645
*1486 FILLER_104_65
*1487 FILLER_104_657
*1488 FILLER_104_669
*1489 FILLER_104_681
*1490 FILLER_104_693
*1491 FILLER_104_699
*1492 FILLER_104_7
*1493 FILLER_104_701
*1494 FILLER_104_713
*1495 FILLER_104_725
*1496 FILLER_104_737
*1497 FILLER_104_749
*1498 FILLER_104_755
*1499 FILLER_104_757
*1500 FILLER_104_769
*1501 FILLER_104_77
*1502 FILLER_104_781
*1503 FILLER_104_793
*1504 FILLER_104_805
*1505 FILLER_104_811
*1506 FILLER_104_813
*1507 FILLER_104_825
*1508 FILLER_104_83
*1509 FILLER_104_837
*1510 FILLER_104_849
*1511 FILLER_104_85
*1512 FILLER_104_861
*1513 FILLER_104_867
*1514 FILLER_104_869
*1515 FILLER_104_881
*1516 FILLER_104_893
*1517 FILLER_104_905
*1518 FILLER_104_917
*1519 FILLER_104_923
*1520 FILLER_104_925
*1521 FILLER_104_937
*1522 FILLER_104_949
*1523 FILLER_104_961
*1524 FILLER_104_97
*1525 FILLER_104_973
*1526 FILLER_104_979
*1527 FILLER_104_981
*1528 FILLER_104_993
*1529 FILLER_105_1001
*1530 FILLER_105_1007
*1531 FILLER_105_1009
*1532 FILLER_105_1021
*1533 FILLER_105_1033
*1534 FILLER_105_1045
*1535 FILLER_105_105
*1536 FILLER_105_1057
*1537 FILLER_105_1063
*1538 FILLER_105_1065
*1539 FILLER_105_1077
*1540 FILLER_105_1089
*1541 FILLER_105_1101
*1542 FILLER_105_111
*1543 FILLER_105_1113
*1544 FILLER_105_1119
*1545 FILLER_105_1121
*1546 FILLER_105_113
*1547 FILLER_105_1133
*1548 FILLER_105_1145
*1549 FILLER_105_1157
*1550 FILLER_105_1169
*1551 FILLER_105_1175
*1552 FILLER_105_1177
*1553 FILLER_105_1189
*1554 FILLER_105_1201
*1555 FILLER_105_1213
*1556 FILLER_105_1225
*1557 FILLER_105_1231
*1558 FILLER_105_1233
*1559 FILLER_105_1245
*1560 FILLER_105_125
*1561 FILLER_105_1257
*1562 FILLER_105_1269
*1563 FILLER_105_1276
*1564 FILLER_105_137
*1565 FILLER_105_149
*1566 FILLER_105_161
*1567 FILLER_105_167
*1568 FILLER_105_169
*1569 FILLER_105_181
*1570 FILLER_105_19
*1571 FILLER_105_193
*1572 FILLER_105_205
*1573 FILLER_105_217
*1574 FILLER_105_223
*1575 FILLER_105_225
*1576 FILLER_105_237
*1577 FILLER_105_249
*1578 FILLER_105_261
*1579 FILLER_105_273
*1580 FILLER_105_279
*1581 FILLER_105_281
*1582 FILLER_105_293
*1583 FILLER_105_3
*1584 FILLER_105_305
*1585 FILLER_105_31
*1586 FILLER_105_317
*1587 FILLER_105_329
*1588 FILLER_105_335
*1589 FILLER_105_337
*1590 FILLER_105_349
*1591 FILLER_105_361
*1592 FILLER_105_373
*1593 FILLER_105_385
*1594 FILLER_105_391
*1595 FILLER_105_393
*1596 FILLER_105_405
*1597 FILLER_105_417
*1598 FILLER_105_429
*1599 FILLER_105_43
*1600 FILLER_105_441
*1601 FILLER_105_447
*1602 FILLER_105_449
*1603 FILLER_105_461
*1604 FILLER_105_473
*1605 FILLER_105_485
*1606 FILLER_105_497
*1607 FILLER_105_503
*1608 FILLER_105_505
*1609 FILLER_105_517
*1610 FILLER_105_529
*1611 FILLER_105_541
*1612 FILLER_105_55
*1613 FILLER_105_553
*1614 FILLER_105_559
*1615 FILLER_105_561
*1616 FILLER_105_57
*1617 FILLER_105_573
*1618 FILLER_105_585
*1619 FILLER_105_597
*1620 FILLER_105_609
*1621 FILLER_105_615
*1622 FILLER_105_617
*1623 FILLER_105_629
*1624 FILLER_105_641
*1625 FILLER_105_653
*1626 FILLER_105_665
*1627 FILLER_105_671
*1628 FILLER_105_673
*1629 FILLER_105_685
*1630 FILLER_105_69
*1631 FILLER_105_697
*1632 FILLER_105_7
*1633 FILLER_105_709
*1634 FILLER_105_721
*1635 FILLER_105_727
*1636 FILLER_105_729
*1637 FILLER_105_741
*1638 FILLER_105_753
*1639 FILLER_105_765
*1640 FILLER_105_777
*1641 FILLER_105_783
*1642 FILLER_105_785
*1643 FILLER_105_797
*1644 FILLER_105_809
*1645 FILLER_105_81
*1646 FILLER_105_821
*1647 FILLER_105_833
*1648 FILLER_105_839
*1649 FILLER_105_841
*1650 FILLER_105_853
*1651 FILLER_105_865
*1652 FILLER_105_877
*1653 FILLER_105_889
*1654 FILLER_105_895
*1655 FILLER_105_897
*1656 FILLER_105_909
*1657 FILLER_105_921
*1658 FILLER_105_93
*1659 FILLER_105_933
*1660 FILLER_105_945
*1661 FILLER_105_951
*1662 FILLER_105_953
*1663 FILLER_105_965
*1664 FILLER_105_977
*1665 FILLER_105_989
*1666 FILLER_106_1005
*1667 FILLER_106_1017
*1668 FILLER_106_1029
*1669 FILLER_106_1035
*1670 FILLER_106_1037
*1671 FILLER_106_1049
*1672 FILLER_106_1061
*1673 FILLER_106_1073
*1674 FILLER_106_1085
*1675 FILLER_106_109
*1676 FILLER_106_1091
*1677 FILLER_106_1093
*1678 FILLER_106_1105
*1679 FILLER_106_1117
*1680 FILLER_106_1129
*1681 FILLER_106_1141
*1682 FILLER_106_1147
*1683 FILLER_106_1149
*1684 FILLER_106_1161
*1685 FILLER_106_1173
*1686 FILLER_106_1185
*1687 FILLER_106_1197
*1688 FILLER_106_1203
*1689 FILLER_106_1205
*1690 FILLER_106_121
*1691 FILLER_106_1217
*1692 FILLER_106_1229
*1693 FILLER_106_1241
*1694 FILLER_106_1253
*1695 FILLER_106_1259
*1696 FILLER_106_1261
*1697 FILLER_106_1276
*1698 FILLER_106_133
*1699 FILLER_106_139
*1700 FILLER_106_14
*1701 FILLER_106_141
*1702 FILLER_106_153
*1703 FILLER_106_165
*1704 FILLER_106_177
*1705 FILLER_106_189
*1706 FILLER_106_195
*1707 FILLER_106_197
*1708 FILLER_106_209
*1709 FILLER_106_221
*1710 FILLER_106_233
*1711 FILLER_106_245
*1712 FILLER_106_251
*1713 FILLER_106_253
*1714 FILLER_106_26
*1715 FILLER_106_265
*1716 FILLER_106_277
*1717 FILLER_106_289
*1718 FILLER_106_29
*1719 FILLER_106_3
*1720 FILLER_106_301
*1721 FILLER_106_307
*1722 FILLER_106_309
*1723 FILLER_106_321
*1724 FILLER_106_333
*1725 FILLER_106_345
*1726 FILLER_106_357
*1727 FILLER_106_363
*1728 FILLER_106_365
*1729 FILLER_106_377
*1730 FILLER_106_389
*1731 FILLER_106_401
*1732 FILLER_106_41
*1733 FILLER_106_413
*1734 FILLER_106_419
*1735 FILLER_106_421
*1736 FILLER_106_433
*1737 FILLER_106_445
*1738 FILLER_106_457
*1739 FILLER_106_469
*1740 FILLER_106_475
*1741 FILLER_106_477
*1742 FILLER_106_489
*1743 FILLER_106_501
*1744 FILLER_106_513
*1745 FILLER_106_525
*1746 FILLER_106_53
*1747 FILLER_106_531
*1748 FILLER_106_533
*1749 FILLER_106_545
*1750 FILLER_106_557
*1751 FILLER_106_569
*1752 FILLER_106_581
*1753 FILLER_106_587
*1754 FILLER_106_589
*1755 FILLER_106_601
*1756 FILLER_106_613
*1757 FILLER_106_625
*1758 FILLER_106_637
*1759 FILLER_106_643
*1760 FILLER_106_645
*1761 FILLER_106_65
*1762 FILLER_106_657
*1763 FILLER_106_669
*1764 FILLER_106_681
*1765 FILLER_106_693
*1766 FILLER_106_699
*1767 FILLER_106_701
*1768 FILLER_106_713
*1769 FILLER_106_725
*1770 FILLER_106_737
*1771 FILLER_106_749
*1772 FILLER_106_755
*1773 FILLER_106_757
*1774 FILLER_106_769
*1775 FILLER_106_77
*1776 FILLER_106_781
*1777 FILLER_106_793
*1778 FILLER_106_8
*1779 FILLER_106_805
*1780 FILLER_106_811
*1781 FILLER_106_813
*1782 FILLER_106_825
*1783 FILLER_106_83
*1784 FILLER_106_837
*1785 FILLER_106_849
*1786 FILLER_106_85
*1787 FILLER_106_861
*1788 FILLER_106_867
*1789 FILLER_106_869
*1790 FILLER_106_881
*1791 FILLER_106_893
*1792 FILLER_106_905
*1793 FILLER_106_917
*1794 FILLER_106_923
*1795 FILLER_106_925
*1796 FILLER_106_937
*1797 FILLER_106_949
*1798 FILLER_106_961
*1799 FILLER_106_97
*1800 FILLER_106_973
*1801 FILLER_106_979
*1802 FILLER_106_981
*1803 FILLER_106_993
*1804 FILLER_107_1001
*1805 FILLER_107_1007
*1806 FILLER_107_1009
*1807 FILLER_107_1021
*1808 FILLER_107_1033
*1809 FILLER_107_1045
*1810 FILLER_107_105
*1811 FILLER_107_1057
*1812 FILLER_107_1063
*1813 FILLER_107_1065
*1814 FILLER_107_1077
*1815 FILLER_107_1089
*1816 FILLER_107_11
*1817 FILLER_107_1101
*1818 FILLER_107_111
*1819 FILLER_107_1113
*1820 FILLER_107_1119
*1821 FILLER_107_1121
*1822 FILLER_107_113
*1823 FILLER_107_1133
*1824 FILLER_107_1145
*1825 FILLER_107_1157
*1826 FILLER_107_1169
*1827 FILLER_107_1175
*1828 FILLER_107_1177
*1829 FILLER_107_1189
*1830 FILLER_107_1201
*1831 FILLER_107_1213
*1832 FILLER_107_1225
*1833 FILLER_107_1231
*1834 FILLER_107_1233
*1835 FILLER_107_1245
*1836 FILLER_107_125
*1837 FILLER_107_1257
*1838 FILLER_107_1269
*1839 FILLER_107_1276
*1840 FILLER_107_137
*1841 FILLER_107_149
*1842 FILLER_107_15
*1843 FILLER_107_161
*1844 FILLER_107_167
*1845 FILLER_107_169
*1846 FILLER_107_181
*1847 FILLER_107_193
*1848 FILLER_107_205
*1849 FILLER_107_217
*1850 FILLER_107_223
*1851 FILLER_107_225
*1852 FILLER_107_237
*1853 FILLER_107_249
*1854 FILLER_107_261
*1855 FILLER_107_27
*1856 FILLER_107_273
*1857 FILLER_107_279
*1858 FILLER_107_281
*1859 FILLER_107_293
*1860 FILLER_107_3
*1861 FILLER_107_305
*1862 FILLER_107_317
*1863 FILLER_107_329
*1864 FILLER_107_335
*1865 FILLER_107_337
*1866 FILLER_107_349
*1867 FILLER_107_361
*1868 FILLER_107_373
*1869 FILLER_107_385
*1870 FILLER_107_39
*1871 FILLER_107_391
*1872 FILLER_107_393
*1873 FILLER_107_405
*1874 FILLER_107_417
*1875 FILLER_107_429
*1876 FILLER_107_441
*1877 FILLER_107_447
*1878 FILLER_107_449
*1879 FILLER_107_461
*1880 FILLER_107_473
*1881 FILLER_107_485
*1882 FILLER_107_497
*1883 FILLER_107_503
*1884 FILLER_107_505
*1885 FILLER_107_51
*1886 FILLER_107_517
*1887 FILLER_107_529
*1888 FILLER_107_541
*1889 FILLER_107_55
*1890 FILLER_107_553
*1891 FILLER_107_559
*1892 FILLER_107_561
*1893 FILLER_107_57
*1894 FILLER_107_573
*1895 FILLER_107_585
*1896 FILLER_107_597
*1897 FILLER_107_609
*1898 FILLER_107_615
*1899 FILLER_107_617
*1900 FILLER_107_629
*1901 FILLER_107_641
*1902 FILLER_107_653
*1903 FILLER_107_665
*1904 FILLER_107_671
*1905 FILLER_107_673
*1906 FILLER_107_685
*1907 FILLER_107_69
*1908 FILLER_107_697
*1909 FILLER_107_7
*1910 FILLER_107_709
*1911 FILLER_107_721
*1912 FILLER_107_727
*1913 FILLER_107_729
*1914 FILLER_107_741
*1915 FILLER_107_753
*1916 FILLER_107_765
*1917 FILLER_107_777
*1918 FILLER_107_783
*1919 FILLER_107_785
*1920 FILLER_107_797
*1921 FILLER_107_809
*1922 FILLER_107_81
*1923 FILLER_107_821
*1924 FILLER_107_833
*1925 FILLER_107_839
*1926 FILLER_107_841
*1927 FILLER_107_853
*1928 FILLER_107_865
*1929 FILLER_107_877
*1930 FILLER_107_889
*1931 FILLER_107_895
*1932 FILLER_107_897
*1933 FILLER_107_909
*1934 FILLER_107_921
*1935 FILLER_107_93
*1936 FILLER_107_933
*1937 FILLER_107_945
*1938 FILLER_107_951
*1939 FILLER_107_953
*1940 FILLER_107_965
*1941 FILLER_107_977
*1942 FILLER_107_989
*1943 FILLER_108_1005
*1944 FILLER_108_1017
*1945 FILLER_108_1029
*1946 FILLER_108_1035
*1947 FILLER_108_1037
*1948 FILLER_108_1049
*1949 FILLER_108_1061
*1950 FILLER_108_1073
*1951 FILLER_108_1085
*1952 FILLER_108_109
*1953 FILLER_108_1091
*1954 FILLER_108_1093
*1955 FILLER_108_1105
*1956 FILLER_108_1117
*1957 FILLER_108_1129
*1958 FILLER_108_1141
*1959 FILLER_108_1147
*1960 FILLER_108_1149
*1961 FILLER_108_1161
*1962 FILLER_108_1173
*1963 FILLER_108_1185
*1964 FILLER_108_1197
*1965 FILLER_108_1203
*1966 FILLER_108_1205
*1967 FILLER_108_121
*1968 FILLER_108_1217
*1969 FILLER_108_1229
*1970 FILLER_108_1241
*1971 FILLER_108_1253
*1972 FILLER_108_1259
*1973 FILLER_108_1261
*1974 FILLER_108_1273
*1975 FILLER_108_133
*1976 FILLER_108_139
*1977 FILLER_108_141
*1978 FILLER_108_15
*1979 FILLER_108_153
*1980 FILLER_108_165
*1981 FILLER_108_177
*1982 FILLER_108_189
*1983 FILLER_108_195
*1984 FILLER_108_197
*1985 FILLER_108_209
*1986 FILLER_108_221
*1987 FILLER_108_233
*1988 FILLER_108_245
*1989 FILLER_108_251
*1990 FILLER_108_253
*1991 FILLER_108_265
*1992 FILLER_108_27
*1993 FILLER_108_277
*1994 FILLER_108_289
*1995 FILLER_108_29
*1996 FILLER_108_3
*1997 FILLER_108_301
*1998 FILLER_108_307
*1999 FILLER_108_309
*2000 FILLER_108_321
*2001 FILLER_108_333
*2002 FILLER_108_345
*2003 FILLER_108_357
*2004 FILLER_108_363
*2005 FILLER_108_365
*2006 FILLER_108_377
*2007 FILLER_108_389
*2008 FILLER_108_401
*2009 FILLER_108_41
*2010 FILLER_108_413
*2011 FILLER_108_419
*2012 FILLER_108_421
*2013 FILLER_108_433
*2014 FILLER_108_445
*2015 FILLER_108_457
*2016 FILLER_108_469
*2017 FILLER_108_475
*2018 FILLER_108_477
*2019 FILLER_108_489
*2020 FILLER_108_501
*2021 FILLER_108_513
*2022 FILLER_108_525
*2023 FILLER_108_53
*2024 FILLER_108_531
*2025 FILLER_108_533
*2026 FILLER_108_545
*2027 FILLER_108_557
*2028 FILLER_108_569
*2029 FILLER_108_581
*2030 FILLER_108_587
*2031 FILLER_108_589
*2032 FILLER_108_601
*2033 FILLER_108_613
*2034 FILLER_108_625
*2035 FILLER_108_637
*2036 FILLER_108_643
*2037 FILLER_108_645
*2038 FILLER_108_65
*2039 FILLER_108_657
*2040 FILLER_108_669
*2041 FILLER_108_681
*2042 FILLER_108_693
*2043 FILLER_108_699
*2044 FILLER_108_701
*2045 FILLER_108_713
*2046 FILLER_108_725
*2047 FILLER_108_737
*2048 FILLER_108_749
*2049 FILLER_108_755
*2050 FILLER_108_757
*2051 FILLER_108_769
*2052 FILLER_108_77
*2053 FILLER_108_781
*2054 FILLER_108_793
*2055 FILLER_108_805
*2056 FILLER_108_811
*2057 FILLER_108_813
*2058 FILLER_108_825
*2059 FILLER_108_83
*2060 FILLER_108_837
*2061 FILLER_108_849
*2062 FILLER_108_85
*2063 FILLER_108_861
*2064 FILLER_108_867
*2065 FILLER_108_869
*2066 FILLER_108_881
*2067 FILLER_108_893
*2068 FILLER_108_905
*2069 FILLER_108_917
*2070 FILLER_108_923
*2071 FILLER_108_925
*2072 FILLER_108_937
*2073 FILLER_108_949
*2074 FILLER_108_961
*2075 FILLER_108_97
*2076 FILLER_108_973
*2077 FILLER_108_979
*2078 FILLER_108_981
*2079 FILLER_108_993
*2080 FILLER_109_1001
*2081 FILLER_109_1007
*2082 FILLER_109_1009
*2083 FILLER_109_1021
*2084 FILLER_109_1033
*2085 FILLER_109_1045
*2086 FILLER_109_105
*2087 FILLER_109_1057
*2088 FILLER_109_1063
*2089 FILLER_109_1065
*2090 FILLER_109_1077
*2091 FILLER_109_1089
*2092 FILLER_109_1101
*2093 FILLER_109_111
*2094 FILLER_109_1113
*2095 FILLER_109_1119
*2096 FILLER_109_1121
*2097 FILLER_109_113
*2098 FILLER_109_1133
*2099 FILLER_109_1145
*2100 FILLER_109_1157
*2101 FILLER_109_1169
*2102 FILLER_109_1175
*2103 FILLER_109_1177
*2104 FILLER_109_1189
*2105 FILLER_109_1201
*2106 FILLER_109_1213
*2107 FILLER_109_1225
*2108 FILLER_109_1231
*2109 FILLER_109_1233
*2110 FILLER_109_1245
*2111 FILLER_109_125
*2112 FILLER_109_1257
*2113 FILLER_109_1269
*2114 FILLER_109_137
*2115 FILLER_109_149
*2116 FILLER_109_161
*2117 FILLER_109_167
*2118 FILLER_109_169
*2119 FILLER_109_181
*2120 FILLER_109_19
*2121 FILLER_109_193
*2122 FILLER_109_205
*2123 FILLER_109_217
*2124 FILLER_109_223
*2125 FILLER_109_225
*2126 FILLER_109_237
*2127 FILLER_109_249
*2128 FILLER_109_261
*2129 FILLER_109_273
*2130 FILLER_109_279
*2131 FILLER_109_281
*2132 FILLER_109_293
*2133 FILLER_109_3
*2134 FILLER_109_305
*2135 FILLER_109_31
*2136 FILLER_109_317
*2137 FILLER_109_329
*2138 FILLER_109_335
*2139 FILLER_109_337
*2140 FILLER_109_349
*2141 FILLER_109_361
*2142 FILLER_109_373
*2143 FILLER_109_385
*2144 FILLER_109_391
*2145 FILLER_109_393
*2146 FILLER_109_405
*2147 FILLER_109_417
*2148 FILLER_109_429
*2149 FILLER_109_43
*2150 FILLER_109_441
*2151 FILLER_109_447
*2152 FILLER_109_449
*2153 FILLER_109_461
*2154 FILLER_109_473
*2155 FILLER_109_485
*2156 FILLER_109_497
*2157 FILLER_109_503
*2158 FILLER_109_505
*2159 FILLER_109_517
*2160 FILLER_109_529
*2161 FILLER_109_541
*2162 FILLER_109_55
*2163 FILLER_109_553
*2164 FILLER_109_559
*2165 FILLER_109_561
*2166 FILLER_109_57
*2167 FILLER_109_573
*2168 FILLER_109_585
*2169 FILLER_109_597
*2170 FILLER_109_609
*2171 FILLER_109_615
*2172 FILLER_109_617
*2173 FILLER_109_629
*2174 FILLER_109_641
*2175 FILLER_109_653
*2176 FILLER_109_665
*2177 FILLER_109_671
*2178 FILLER_109_673
*2179 FILLER_109_685
*2180 FILLER_109_69
*2181 FILLER_109_697
*2182 FILLER_109_7
*2183 FILLER_109_709
*2184 FILLER_109_721
*2185 FILLER_109_727
*2186 FILLER_109_729
*2187 FILLER_109_741
*2188 FILLER_109_753
*2189 FILLER_109_765
*2190 FILLER_109_777
*2191 FILLER_109_783
*2192 FILLER_109_785
*2193 FILLER_109_797
*2194 FILLER_109_809
*2195 FILLER_109_81
*2196 FILLER_109_821
*2197 FILLER_109_833
*2198 FILLER_109_839
*2199 FILLER_109_841
*2200 FILLER_109_853
*2201 FILLER_109_865
*2202 FILLER_109_877
*2203 FILLER_109_889
*2204 FILLER_109_895
*2205 FILLER_109_897
*2206 FILLER_109_909
*2207 FILLER_109_921
*2208 FILLER_109_93
*2209 FILLER_109_933
*2210 FILLER_109_945
*2211 FILLER_109_951
*2212 FILLER_109_953
*2213 FILLER_109_965
*2214 FILLER_109_977
*2215 FILLER_109_989
*2216 FILLER_10_1005
*2217 FILLER_10_1017
*2218 FILLER_10_1029
*2219 FILLER_10_1035
*2220 FILLER_10_1037
*2221 FILLER_10_1049
*2222 FILLER_10_1061
*2223 FILLER_10_1073
*2224 FILLER_10_1085
*2225 FILLER_10_109
*2226 FILLER_10_1091
*2227 FILLER_10_1093
*2228 FILLER_10_1105
*2229 FILLER_10_1117
*2230 FILLER_10_1129
*2231 FILLER_10_1141
*2232 FILLER_10_1147
*2233 FILLER_10_1149
*2234 FILLER_10_1161
*2235 FILLER_10_1173
*2236 FILLER_10_1185
*2237 FILLER_10_1197
*2238 FILLER_10_1203
*2239 FILLER_10_1205
*2240 FILLER_10_121
*2241 FILLER_10_1217
*2242 FILLER_10_1229
*2243 FILLER_10_1241
*2244 FILLER_10_1253
*2245 FILLER_10_1259
*2246 FILLER_10_1261
*2247 FILLER_10_1273
*2248 FILLER_10_133
*2249 FILLER_10_139
*2250 FILLER_10_141
*2251 FILLER_10_15
*2252 FILLER_10_153
*2253 FILLER_10_165
*2254 FILLER_10_177
*2255 FILLER_10_189
*2256 FILLER_10_195
*2257 FILLER_10_197
*2258 FILLER_10_209
*2259 FILLER_10_221
*2260 FILLER_10_233
*2261 FILLER_10_245
*2262 FILLER_10_251
*2263 FILLER_10_253
*2264 FILLER_10_265
*2265 FILLER_10_27
*2266 FILLER_10_277
*2267 FILLER_10_289
*2268 FILLER_10_29
*2269 FILLER_10_3
*2270 FILLER_10_301
*2271 FILLER_10_307
*2272 FILLER_10_309
*2273 FILLER_10_321
*2274 FILLER_10_333
*2275 FILLER_10_345
*2276 FILLER_10_357
*2277 FILLER_10_363
*2278 FILLER_10_365
*2279 FILLER_10_377
*2280 FILLER_10_389
*2281 FILLER_10_401
*2282 FILLER_10_41
*2283 FILLER_10_413
*2284 FILLER_10_419
*2285 FILLER_10_421
*2286 FILLER_10_433
*2287 FILLER_10_445
*2288 FILLER_10_457
*2289 FILLER_10_469
*2290 FILLER_10_475
*2291 FILLER_10_477
*2292 FILLER_10_489
*2293 FILLER_10_501
*2294 FILLER_10_513
*2295 FILLER_10_525
*2296 FILLER_10_53
*2297 FILLER_10_531
*2298 FILLER_10_533
*2299 FILLER_10_545
*2300 FILLER_10_557
*2301 FILLER_10_569
*2302 FILLER_10_581
*2303 FILLER_10_587
*2304 FILLER_10_589
*2305 FILLER_10_601
*2306 FILLER_10_613
*2307 FILLER_10_625
*2308 FILLER_10_637
*2309 FILLER_10_643
*2310 FILLER_10_645
*2311 FILLER_10_65
*2312 FILLER_10_657
*2313 FILLER_10_669
*2314 FILLER_10_681
*2315 FILLER_10_693
*2316 FILLER_10_699
*2317 FILLER_10_701
*2318 FILLER_10_713
*2319 FILLER_10_725
*2320 FILLER_10_737
*2321 FILLER_10_749
*2322 FILLER_10_755
*2323 FILLER_10_757
*2324 FILLER_10_769
*2325 FILLER_10_77
*2326 FILLER_10_781
*2327 FILLER_10_793
*2328 FILLER_10_805
*2329 FILLER_10_811
*2330 FILLER_10_813
*2331 FILLER_10_825
*2332 FILLER_10_83
*2333 FILLER_10_837
*2334 FILLER_10_849
*2335 FILLER_10_85
*2336 FILLER_10_861
*2337 FILLER_10_867
*2338 FILLER_10_869
*2339 FILLER_10_881
*2340 FILLER_10_893
*2341 FILLER_10_905
*2342 FILLER_10_917
*2343 FILLER_10_923
*2344 FILLER_10_925
*2345 FILLER_10_937
*2346 FILLER_10_949
*2347 FILLER_10_961
*2348 FILLER_10_97
*2349 FILLER_10_973
*2350 FILLER_10_979
*2351 FILLER_10_981
*2352 FILLER_10_993
*2353 FILLER_110_1005
*2354 FILLER_110_1017
*2355 FILLER_110_1029
*2356 FILLER_110_1035
*2357 FILLER_110_1037
*2358 FILLER_110_1049
*2359 FILLER_110_1061
*2360 FILLER_110_1073
*2361 FILLER_110_1085
*2362 FILLER_110_109
*2363 FILLER_110_1091
*2364 FILLER_110_1093
*2365 FILLER_110_1105
*2366 FILLER_110_1117
*2367 FILLER_110_1129
*2368 FILLER_110_1141
*2369 FILLER_110_1147
*2370 FILLER_110_1149
*2371 FILLER_110_1161
*2372 FILLER_110_1173
*2373 FILLER_110_1185
*2374 FILLER_110_1197
*2375 FILLER_110_1203
*2376 FILLER_110_1205
*2377 FILLER_110_121
*2378 FILLER_110_1217
*2379 FILLER_110_1229
*2380 FILLER_110_1241
*2381 FILLER_110_1253
*2382 FILLER_110_1259
*2383 FILLER_110_1261
*2384 FILLER_110_1267
*2385 FILLER_110_1275
*2386 FILLER_110_133
*2387 FILLER_110_139
*2388 FILLER_110_141
*2389 FILLER_110_153
*2390 FILLER_110_165
*2391 FILLER_110_177
*2392 FILLER_110_189
*2393 FILLER_110_195
*2394 FILLER_110_197
*2395 FILLER_110_20
*2396 FILLER_110_209
*2397 FILLER_110_221
*2398 FILLER_110_233
*2399 FILLER_110_245
*2400 FILLER_110_251
*2401 FILLER_110_253
*2402 FILLER_110_265
*2403 FILLER_110_277
*2404 FILLER_110_289
*2405 FILLER_110_29
*2406 FILLER_110_3
*2407 FILLER_110_301
*2408 FILLER_110_307
*2409 FILLER_110_309
*2410 FILLER_110_321
*2411 FILLER_110_333
*2412 FILLER_110_345
*2413 FILLER_110_357
*2414 FILLER_110_363
*2415 FILLER_110_365
*2416 FILLER_110_377
*2417 FILLER_110_389
*2418 FILLER_110_401
*2419 FILLER_110_41
*2420 FILLER_110_413
*2421 FILLER_110_419
*2422 FILLER_110_421
*2423 FILLER_110_433
*2424 FILLER_110_445
*2425 FILLER_110_457
*2426 FILLER_110_469
*2427 FILLER_110_475
*2428 FILLER_110_477
*2429 FILLER_110_489
*2430 FILLER_110_501
*2431 FILLER_110_513
*2432 FILLER_110_525
*2433 FILLER_110_53
*2434 FILLER_110_531
*2435 FILLER_110_533
*2436 FILLER_110_545
*2437 FILLER_110_557
*2438 FILLER_110_569
*2439 FILLER_110_581
*2440 FILLER_110_587
*2441 FILLER_110_589
*2442 FILLER_110_601
*2443 FILLER_110_613
*2444 FILLER_110_625
*2445 FILLER_110_637
*2446 FILLER_110_643
*2447 FILLER_110_645
*2448 FILLER_110_65
*2449 FILLER_110_657
*2450 FILLER_110_669
*2451 FILLER_110_681
*2452 FILLER_110_693
*2453 FILLER_110_699
*2454 FILLER_110_701
*2455 FILLER_110_713
*2456 FILLER_110_725
*2457 FILLER_110_737
*2458 FILLER_110_749
*2459 FILLER_110_755
*2460 FILLER_110_757
*2461 FILLER_110_769
*2462 FILLER_110_77
*2463 FILLER_110_781
*2464 FILLER_110_793
*2465 FILLER_110_8
*2466 FILLER_110_805
*2467 FILLER_110_811
*2468 FILLER_110_813
*2469 FILLER_110_825
*2470 FILLER_110_83
*2471 FILLER_110_837
*2472 FILLER_110_849
*2473 FILLER_110_85
*2474 FILLER_110_861
*2475 FILLER_110_867
*2476 FILLER_110_869
*2477 FILLER_110_881
*2478 FILLER_110_893
*2479 FILLER_110_905
*2480 FILLER_110_917
*2481 FILLER_110_923
*2482 FILLER_110_925
*2483 FILLER_110_937
*2484 FILLER_110_949
*2485 FILLER_110_961
*2486 FILLER_110_97
*2487 FILLER_110_973
*2488 FILLER_110_979
*2489 FILLER_110_981
*2490 FILLER_110_993
*2491 FILLER_111_1001
*2492 FILLER_111_1007
*2493 FILLER_111_1009
*2494 FILLER_111_1021
*2495 FILLER_111_1033
*2496 FILLER_111_1045
*2497 FILLER_111_105
*2498 FILLER_111_1057
*2499 FILLER_111_1063
*2500 FILLER_111_1065
*2501 FILLER_111_1077
*2502 FILLER_111_1089
*2503 FILLER_111_1101
*2504 FILLER_111_111
*2505 FILLER_111_1113
*2506 FILLER_111_1119
*2507 FILLER_111_1121
*2508 FILLER_111_113
*2509 FILLER_111_1133
*2510 FILLER_111_1145
*2511 FILLER_111_1157
*2512 FILLER_111_1169
*2513 FILLER_111_1175
*2514 FILLER_111_1177
*2515 FILLER_111_1189
*2516 FILLER_111_1201
*2517 FILLER_111_1213
*2518 FILLER_111_1225
*2519 FILLER_111_1231
*2520 FILLER_111_1233
*2521 FILLER_111_1245
*2522 FILLER_111_125
*2523 FILLER_111_1257
*2524 FILLER_111_1269
*2525 FILLER_111_1276
*2526 FILLER_111_137
*2527 FILLER_111_149
*2528 FILLER_111_161
*2529 FILLER_111_167
*2530 FILLER_111_169
*2531 FILLER_111_181
*2532 FILLER_111_19
*2533 FILLER_111_193
*2534 FILLER_111_205
*2535 FILLER_111_217
*2536 FILLER_111_223
*2537 FILLER_111_225
*2538 FILLER_111_237
*2539 FILLER_111_249
*2540 FILLER_111_261
*2541 FILLER_111_273
*2542 FILLER_111_279
*2543 FILLER_111_281
*2544 FILLER_111_293
*2545 FILLER_111_3
*2546 FILLER_111_305
*2547 FILLER_111_31
*2548 FILLER_111_317
*2549 FILLER_111_329
*2550 FILLER_111_335
*2551 FILLER_111_337
*2552 FILLER_111_349
*2553 FILLER_111_361
*2554 FILLER_111_373
*2555 FILLER_111_385
*2556 FILLER_111_391
*2557 FILLER_111_393
*2558 FILLER_111_405
*2559 FILLER_111_417
*2560 FILLER_111_429
*2561 FILLER_111_43
*2562 FILLER_111_441
*2563 FILLER_111_447
*2564 FILLER_111_449
*2565 FILLER_111_461
*2566 FILLER_111_473
*2567 FILLER_111_485
*2568 FILLER_111_497
*2569 FILLER_111_503
*2570 FILLER_111_505
*2571 FILLER_111_517
*2572 FILLER_111_529
*2573 FILLER_111_541
*2574 FILLER_111_55
*2575 FILLER_111_553
*2576 FILLER_111_559
*2577 FILLER_111_561
*2578 FILLER_111_57
*2579 FILLER_111_573
*2580 FILLER_111_585
*2581 FILLER_111_597
*2582 FILLER_111_609
*2583 FILLER_111_615
*2584 FILLER_111_617
*2585 FILLER_111_629
*2586 FILLER_111_641
*2587 FILLER_111_653
*2588 FILLER_111_665
*2589 FILLER_111_671
*2590 FILLER_111_673
*2591 FILLER_111_685
*2592 FILLER_111_69
*2593 FILLER_111_697
*2594 FILLER_111_7
*2595 FILLER_111_709
*2596 FILLER_111_721
*2597 FILLER_111_727
*2598 FILLER_111_729
*2599 FILLER_111_741
*2600 FILLER_111_753
*2601 FILLER_111_765
*2602 FILLER_111_777
*2603 FILLER_111_783
*2604 FILLER_111_785
*2605 FILLER_111_797
*2606 FILLER_111_809
*2607 FILLER_111_81
*2608 FILLER_111_821
*2609 FILLER_111_833
*2610 FILLER_111_839
*2611 FILLER_111_841
*2612 FILLER_111_853
*2613 FILLER_111_865
*2614 FILLER_111_877
*2615 FILLER_111_889
*2616 FILLER_111_895
*2617 FILLER_111_897
*2618 FILLER_111_909
*2619 FILLER_111_921
*2620 FILLER_111_93
*2621 FILLER_111_933
*2622 FILLER_111_945
*2623 FILLER_111_951
*2624 FILLER_111_953
*2625 FILLER_111_965
*2626 FILLER_111_977
*2627 FILLER_111_989
*2628 FILLER_112_1005
*2629 FILLER_112_1017
*2630 FILLER_112_1029
*2631 FILLER_112_1035
*2632 FILLER_112_1037
*2633 FILLER_112_1049
*2634 FILLER_112_1061
*2635 FILLER_112_1073
*2636 FILLER_112_1085
*2637 FILLER_112_109
*2638 FILLER_112_1091
*2639 FILLER_112_1093
*2640 FILLER_112_11
*2641 FILLER_112_1105
*2642 FILLER_112_1117
*2643 FILLER_112_1129
*2644 FILLER_112_1141
*2645 FILLER_112_1147
*2646 FILLER_112_1149
*2647 FILLER_112_1161
*2648 FILLER_112_1173
*2649 FILLER_112_1185
*2650 FILLER_112_1197
*2651 FILLER_112_1203
*2652 FILLER_112_1205
*2653 FILLER_112_121
*2654 FILLER_112_1217
*2655 FILLER_112_1229
*2656 FILLER_112_1241
*2657 FILLER_112_1253
*2658 FILLER_112_1259
*2659 FILLER_112_1261
*2660 FILLER_112_1267
*2661 FILLER_112_1276
*2662 FILLER_112_133
*2663 FILLER_112_139
*2664 FILLER_112_141
*2665 FILLER_112_15
*2666 FILLER_112_153
*2667 FILLER_112_165
*2668 FILLER_112_177
*2669 FILLER_112_189
*2670 FILLER_112_195
*2671 FILLER_112_197
*2672 FILLER_112_209
*2673 FILLER_112_221
*2674 FILLER_112_233
*2675 FILLER_112_245
*2676 FILLER_112_251
*2677 FILLER_112_253
*2678 FILLER_112_265
*2679 FILLER_112_27
*2680 FILLER_112_277
*2681 FILLER_112_289
*2682 FILLER_112_29
*2683 FILLER_112_3
*2684 FILLER_112_301
*2685 FILLER_112_307
*2686 FILLER_112_309
*2687 FILLER_112_321
*2688 FILLER_112_333
*2689 FILLER_112_345
*2690 FILLER_112_357
*2691 FILLER_112_363
*2692 FILLER_112_365
*2693 FILLER_112_377
*2694 FILLER_112_389
*2695 FILLER_112_401
*2696 FILLER_112_41
*2697 FILLER_112_413
*2698 FILLER_112_419
*2699 FILLER_112_421
*2700 FILLER_112_433
*2701 FILLER_112_445
*2702 FILLER_112_457
*2703 FILLER_112_469
*2704 FILLER_112_475
*2705 FILLER_112_477
*2706 FILLER_112_489
*2707 FILLER_112_501
*2708 FILLER_112_513
*2709 FILLER_112_525
*2710 FILLER_112_53
*2711 FILLER_112_531
*2712 FILLER_112_533
*2713 FILLER_112_545
*2714 FILLER_112_557
*2715 FILLER_112_569
*2716 FILLER_112_581
*2717 FILLER_112_587
*2718 FILLER_112_589
*2719 FILLER_112_601
*2720 FILLER_112_613
*2721 FILLER_112_625
*2722 FILLER_112_637
*2723 FILLER_112_643
*2724 FILLER_112_645
*2725 FILLER_112_65
*2726 FILLER_112_657
*2727 FILLER_112_669
*2728 FILLER_112_681
*2729 FILLER_112_693
*2730 FILLER_112_699
*2731 FILLER_112_7
*2732 FILLER_112_701
*2733 FILLER_112_713
*2734 FILLER_112_725
*2735 FILLER_112_737
*2736 FILLER_112_749
*2737 FILLER_112_755
*2738 FILLER_112_757
*2739 FILLER_112_769
*2740 FILLER_112_77
*2741 FILLER_112_781
*2742 FILLER_112_793
*2743 FILLER_112_805
*2744 FILLER_112_811
*2745 FILLER_112_813
*2746 FILLER_112_825
*2747 FILLER_112_83
*2748 FILLER_112_837
*2749 FILLER_112_849
*2750 FILLER_112_85
*2751 FILLER_112_861
*2752 FILLER_112_867
*2753 FILLER_112_869
*2754 FILLER_112_881
*2755 FILLER_112_893
*2756 FILLER_112_905
*2757 FILLER_112_917
*2758 FILLER_112_923
*2759 FILLER_112_925
*2760 FILLER_112_937
*2761 FILLER_112_949
*2762 FILLER_112_961
*2763 FILLER_112_97
*2764 FILLER_112_973
*2765 FILLER_112_979
*2766 FILLER_112_981
*2767 FILLER_112_993
*2768 FILLER_113_1001
*2769 FILLER_113_1007
*2770 FILLER_113_1009
*2771 FILLER_113_1021
*2772 FILLER_113_1033
*2773 FILLER_113_1045
*2774 FILLER_113_105
*2775 FILLER_113_1057
*2776 FILLER_113_1063
*2777 FILLER_113_1065
*2778 FILLER_113_1077
*2779 FILLER_113_1089
*2780 FILLER_113_1101
*2781 FILLER_113_111
*2782 FILLER_113_1113
*2783 FILLER_113_1119
*2784 FILLER_113_1121
*2785 FILLER_113_113
*2786 FILLER_113_1133
*2787 FILLER_113_1145
*2788 FILLER_113_1157
*2789 FILLER_113_1169
*2790 FILLER_113_1175
*2791 FILLER_113_1177
*2792 FILLER_113_1189
*2793 FILLER_113_1201
*2794 FILLER_113_1213
*2795 FILLER_113_1225
*2796 FILLER_113_1231
*2797 FILLER_113_1233
*2798 FILLER_113_1245
*2799 FILLER_113_125
*2800 FILLER_113_1257
*2801 FILLER_113_1269
*2802 FILLER_113_137
*2803 FILLER_113_149
*2804 FILLER_113_15
*2805 FILLER_113_161
*2806 FILLER_113_167
*2807 FILLER_113_169
*2808 FILLER_113_181
*2809 FILLER_113_193
*2810 FILLER_113_205
*2811 FILLER_113_217
*2812 FILLER_113_223
*2813 FILLER_113_225
*2814 FILLER_113_237
*2815 FILLER_113_249
*2816 FILLER_113_261
*2817 FILLER_113_27
*2818 FILLER_113_273
*2819 FILLER_113_279
*2820 FILLER_113_281
*2821 FILLER_113_293
*2822 FILLER_113_3
*2823 FILLER_113_305
*2824 FILLER_113_317
*2825 FILLER_113_329
*2826 FILLER_113_335
*2827 FILLER_113_337
*2828 FILLER_113_349
*2829 FILLER_113_361
*2830 FILLER_113_373
*2831 FILLER_113_385
*2832 FILLER_113_39
*2833 FILLER_113_391
*2834 FILLER_113_393
*2835 FILLER_113_405
*2836 FILLER_113_417
*2837 FILLER_113_429
*2838 FILLER_113_441
*2839 FILLER_113_447
*2840 FILLER_113_449
*2841 FILLER_113_461
*2842 FILLER_113_473
*2843 FILLER_113_485
*2844 FILLER_113_497
*2845 FILLER_113_503
*2846 FILLER_113_505
*2847 FILLER_113_51
*2848 FILLER_113_517
*2849 FILLER_113_529
*2850 FILLER_113_541
*2851 FILLER_113_55
*2852 FILLER_113_553
*2853 FILLER_113_559
*2854 FILLER_113_561
*2855 FILLER_113_57
*2856 FILLER_113_573
*2857 FILLER_113_585
*2858 FILLER_113_597
*2859 FILLER_113_609
*2860 FILLER_113_615
*2861 FILLER_113_617
*2862 FILLER_113_629
*2863 FILLER_113_641
*2864 FILLER_113_653
*2865 FILLER_113_665
*2866 FILLER_113_671
*2867 FILLER_113_673
*2868 FILLER_113_685
*2869 FILLER_113_69
*2870 FILLER_113_697
*2871 FILLER_113_709
*2872 FILLER_113_721
*2873 FILLER_113_727
*2874 FILLER_113_729
*2875 FILLER_113_741
*2876 FILLER_113_753
*2877 FILLER_113_765
*2878 FILLER_113_777
*2879 FILLER_113_783
*2880 FILLER_113_785
*2881 FILLER_113_797
*2882 FILLER_113_809
*2883 FILLER_113_81
*2884 FILLER_113_821
*2885 FILLER_113_833
*2886 FILLER_113_839
*2887 FILLER_113_841
*2888 FILLER_113_853
*2889 FILLER_113_865
*2890 FILLER_113_877
*2891 FILLER_113_889
*2892 FILLER_113_895
*2893 FILLER_113_897
*2894 FILLER_113_909
*2895 FILLER_113_921
*2896 FILLER_113_93
*2897 FILLER_113_933
*2898 FILLER_113_945
*2899 FILLER_113_951
*2900 FILLER_113_953
*2901 FILLER_113_965
*2902 FILLER_113_977
*2903 FILLER_113_989
*2904 FILLER_114_1005
*2905 FILLER_114_1017
*2906 FILLER_114_1029
*2907 FILLER_114_1035
*2908 FILLER_114_1037
*2909 FILLER_114_1049
*2910 FILLER_114_1061
*2911 FILLER_114_1073
*2912 FILLER_114_1085
*2913 FILLER_114_109
*2914 FILLER_114_1091
*2915 FILLER_114_1093
*2916 FILLER_114_1105
*2917 FILLER_114_1117
*2918 FILLER_114_1129
*2919 FILLER_114_1141
*2920 FILLER_114_1147
*2921 FILLER_114_1149
*2922 FILLER_114_1161
*2923 FILLER_114_1173
*2924 FILLER_114_1185
*2925 FILLER_114_1197
*2926 FILLER_114_1203
*2927 FILLER_114_1205
*2928 FILLER_114_121
*2929 FILLER_114_1217
*2930 FILLER_114_1229
*2931 FILLER_114_1241
*2932 FILLER_114_1253
*2933 FILLER_114_1259
*2934 FILLER_114_1261
*2935 FILLER_114_1269
*2936 FILLER_114_1276
*2937 FILLER_114_133
*2938 FILLER_114_139
*2939 FILLER_114_141
*2940 FILLER_114_153
*2941 FILLER_114_165
*2942 FILLER_114_177
*2943 FILLER_114_189
*2944 FILLER_114_19
*2945 FILLER_114_195
*2946 FILLER_114_197
*2947 FILLER_114_209
*2948 FILLER_114_221
*2949 FILLER_114_233
*2950 FILLER_114_245
*2951 FILLER_114_251
*2952 FILLER_114_253
*2953 FILLER_114_265
*2954 FILLER_114_27
*2955 FILLER_114_277
*2956 FILLER_114_289
*2957 FILLER_114_29
*2958 FILLER_114_3
*2959 FILLER_114_301
*2960 FILLER_114_307
*2961 FILLER_114_309
*2962 FILLER_114_321
*2963 FILLER_114_333
*2964 FILLER_114_345
*2965 FILLER_114_357
*2966 FILLER_114_363
*2967 FILLER_114_365
*2968 FILLER_114_377
*2969 FILLER_114_389
*2970 FILLER_114_401
*2971 FILLER_114_41
*2972 FILLER_114_413
*2973 FILLER_114_419
*2974 FILLER_114_421
*2975 FILLER_114_433
*2976 FILLER_114_445
*2977 FILLER_114_457
*2978 FILLER_114_469
*2979 FILLER_114_475
*2980 FILLER_114_477
*2981 FILLER_114_489
*2982 FILLER_114_501
*2983 FILLER_114_513
*2984 FILLER_114_525
*2985 FILLER_114_53
*2986 FILLER_114_531
*2987 FILLER_114_533
*2988 FILLER_114_545
*2989 FILLER_114_557
*2990 FILLER_114_569
*2991 FILLER_114_581
*2992 FILLER_114_587
*2993 FILLER_114_589
*2994 FILLER_114_601
*2995 FILLER_114_613
*2996 FILLER_114_625
*2997 FILLER_114_637
*2998 FILLER_114_643
*2999 FILLER_114_645
*3000 FILLER_114_65
*3001 FILLER_114_657
*3002 FILLER_114_669
*3003 FILLER_114_681
*3004 FILLER_114_693
*3005 FILLER_114_699
*3006 FILLER_114_7
*3007 FILLER_114_701
*3008 FILLER_114_713
*3009 FILLER_114_725
*3010 FILLER_114_737
*3011 FILLER_114_749
*3012 FILLER_114_755
*3013 FILLER_114_757
*3014 FILLER_114_769
*3015 FILLER_114_77
*3016 FILLER_114_781
*3017 FILLER_114_793
*3018 FILLER_114_805
*3019 FILLER_114_811
*3020 FILLER_114_813
*3021 FILLER_114_825
*3022 FILLER_114_83
*3023 FILLER_114_837
*3024 FILLER_114_849
*3025 FILLER_114_85
*3026 FILLER_114_861
*3027 FILLER_114_867
*3028 FILLER_114_869
*3029 FILLER_114_881
*3030 FILLER_114_893
*3031 FILLER_114_905
*3032 FILLER_114_917
*3033 FILLER_114_923
*3034 FILLER_114_925
*3035 FILLER_114_937
*3036 FILLER_114_949
*3037 FILLER_114_961
*3038 FILLER_114_97
*3039 FILLER_114_973
*3040 FILLER_114_979
*3041 FILLER_114_981
*3042 FILLER_114_993
*3043 FILLER_115_1001
*3044 FILLER_115_1007
*3045 FILLER_115_1009
*3046 FILLER_115_1021
*3047 FILLER_115_1033
*3048 FILLER_115_1045
*3049 FILLER_115_105
*3050 FILLER_115_1057
*3051 FILLER_115_1063
*3052 FILLER_115_1065
*3053 FILLER_115_1077
*3054 FILLER_115_1089
*3055 FILLER_115_1101
*3056 FILLER_115_111
*3057 FILLER_115_1113
*3058 FILLER_115_1119
*3059 FILLER_115_1121
*3060 FILLER_115_113
*3061 FILLER_115_1133
*3062 FILLER_115_1145
*3063 FILLER_115_1157
*3064 FILLER_115_1169
*3065 FILLER_115_1175
*3066 FILLER_115_1177
*3067 FILLER_115_1189
*3068 FILLER_115_1201
*3069 FILLER_115_1213
*3070 FILLER_115_1225
*3071 FILLER_115_1231
*3072 FILLER_115_1233
*3073 FILLER_115_1245
*3074 FILLER_115_125
*3075 FILLER_115_1257
*3076 FILLER_115_1269
*3077 FILLER_115_1276
*3078 FILLER_115_137
*3079 FILLER_115_149
*3080 FILLER_115_161
*3081 FILLER_115_167
*3082 FILLER_115_169
*3083 FILLER_115_181
*3084 FILLER_115_193
*3085 FILLER_115_20
*3086 FILLER_115_205
*3087 FILLER_115_217
*3088 FILLER_115_223
*3089 FILLER_115_225
*3090 FILLER_115_237
*3091 FILLER_115_249
*3092 FILLER_115_261
*3093 FILLER_115_273
*3094 FILLER_115_279
*3095 FILLER_115_281
*3096 FILLER_115_293
*3097 FILLER_115_3
*3098 FILLER_115_305
*3099 FILLER_115_317
*3100 FILLER_115_32
*3101 FILLER_115_329
*3102 FILLER_115_335
*3103 FILLER_115_337
*3104 FILLER_115_349
*3105 FILLER_115_361
*3106 FILLER_115_373
*3107 FILLER_115_385
*3108 FILLER_115_391
*3109 FILLER_115_393
*3110 FILLER_115_405
*3111 FILLER_115_417
*3112 FILLER_115_429
*3113 FILLER_115_44
*3114 FILLER_115_441
*3115 FILLER_115_447
*3116 FILLER_115_449
*3117 FILLER_115_461
*3118 FILLER_115_473
*3119 FILLER_115_485
*3120 FILLER_115_497
*3121 FILLER_115_503
*3122 FILLER_115_505
*3123 FILLER_115_517
*3124 FILLER_115_529
*3125 FILLER_115_541
*3126 FILLER_115_553
*3127 FILLER_115_559
*3128 FILLER_115_561
*3129 FILLER_115_57
*3130 FILLER_115_573
*3131 FILLER_115_585
*3132 FILLER_115_597
*3133 FILLER_115_609
*3134 FILLER_115_615
*3135 FILLER_115_617
*3136 FILLER_115_629
*3137 FILLER_115_641
*3138 FILLER_115_653
*3139 FILLER_115_665
*3140 FILLER_115_671
*3141 FILLER_115_673
*3142 FILLER_115_685
*3143 FILLER_115_69
*3144 FILLER_115_697
*3145 FILLER_115_709
*3146 FILLER_115_721
*3147 FILLER_115_727
*3148 FILLER_115_729
*3149 FILLER_115_741
*3150 FILLER_115_753
*3151 FILLER_115_765
*3152 FILLER_115_777
*3153 FILLER_115_783
*3154 FILLER_115_785
*3155 FILLER_115_797
*3156 FILLER_115_8
*3157 FILLER_115_809
*3158 FILLER_115_81
*3159 FILLER_115_821
*3160 FILLER_115_833
*3161 FILLER_115_839
*3162 FILLER_115_841
*3163 FILLER_115_853
*3164 FILLER_115_865
*3165 FILLER_115_877
*3166 FILLER_115_889
*3167 FILLER_115_895
*3168 FILLER_115_897
*3169 FILLER_115_909
*3170 FILLER_115_921
*3171 FILLER_115_93
*3172 FILLER_115_933
*3173 FILLER_115_945
*3174 FILLER_115_951
*3175 FILLER_115_953
*3176 FILLER_115_965
*3177 FILLER_115_977
*3178 FILLER_115_989
*3179 FILLER_116_1005
*3180 FILLER_116_1017
*3181 FILLER_116_1029
*3182 FILLER_116_1035
*3183 FILLER_116_1037
*3184 FILLER_116_1049
*3185 FILLER_116_1061
*3186 FILLER_116_1073
*3187 FILLER_116_1085
*3188 FILLER_116_109
*3189 FILLER_116_1091
*3190 FILLER_116_1093
*3191 FILLER_116_1105
*3192 FILLER_116_1117
*3193 FILLER_116_1129
*3194 FILLER_116_1141
*3195 FILLER_116_1147
*3196 FILLER_116_1149
*3197 FILLER_116_1161
*3198 FILLER_116_1173
*3199 FILLER_116_1185
*3200 FILLER_116_1197
*3201 FILLER_116_1203
*3202 FILLER_116_1205
*3203 FILLER_116_121
*3204 FILLER_116_1217
*3205 FILLER_116_1229
*3206 FILLER_116_1241
*3207 FILLER_116_1253
*3208 FILLER_116_1259
*3209 FILLER_116_1261
*3210 FILLER_116_1276
*3211 FILLER_116_133
*3212 FILLER_116_139
*3213 FILLER_116_141
*3214 FILLER_116_153
*3215 FILLER_116_165
*3216 FILLER_116_177
*3217 FILLER_116_189
*3218 FILLER_116_19
*3219 FILLER_116_195
*3220 FILLER_116_197
*3221 FILLER_116_209
*3222 FILLER_116_221
*3223 FILLER_116_233
*3224 FILLER_116_245
*3225 FILLER_116_251
*3226 FILLER_116_253
*3227 FILLER_116_265
*3228 FILLER_116_27
*3229 FILLER_116_277
*3230 FILLER_116_289
*3231 FILLER_116_29
*3232 FILLER_116_3
*3233 FILLER_116_301
*3234 FILLER_116_307
*3235 FILLER_116_309
*3236 FILLER_116_321
*3237 FILLER_116_333
*3238 FILLER_116_345
*3239 FILLER_116_357
*3240 FILLER_116_363
*3241 FILLER_116_365
*3242 FILLER_116_377
*3243 FILLER_116_389
*3244 FILLER_116_401
*3245 FILLER_116_41
*3246 FILLER_116_413
*3247 FILLER_116_419
*3248 FILLER_116_421
*3249 FILLER_116_433
*3250 FILLER_116_445
*3251 FILLER_116_457
*3252 FILLER_116_469
*3253 FILLER_116_475
*3254 FILLER_116_477
*3255 FILLER_116_489
*3256 FILLER_116_501
*3257 FILLER_116_513
*3258 FILLER_116_525
*3259 FILLER_116_53
*3260 FILLER_116_531
*3261 FILLER_116_533
*3262 FILLER_116_545
*3263 FILLER_116_557
*3264 FILLER_116_569
*3265 FILLER_116_581
*3266 FILLER_116_587
*3267 FILLER_116_589
*3268 FILLER_116_601
*3269 FILLER_116_613
*3270 FILLER_116_625
*3271 FILLER_116_637
*3272 FILLER_116_643
*3273 FILLER_116_645
*3274 FILLER_116_65
*3275 FILLER_116_657
*3276 FILLER_116_669
*3277 FILLER_116_681
*3278 FILLER_116_693
*3279 FILLER_116_699
*3280 FILLER_116_7
*3281 FILLER_116_701
*3282 FILLER_116_713
*3283 FILLER_116_725
*3284 FILLER_116_737
*3285 FILLER_116_749
*3286 FILLER_116_755
*3287 FILLER_116_757
*3288 FILLER_116_769
*3289 FILLER_116_77
*3290 FILLER_116_781
*3291 FILLER_116_793
*3292 FILLER_116_805
*3293 FILLER_116_811
*3294 FILLER_116_813
*3295 FILLER_116_825
*3296 FILLER_116_83
*3297 FILLER_116_837
*3298 FILLER_116_849
*3299 FILLER_116_85
*3300 FILLER_116_861
*3301 FILLER_116_867
*3302 FILLER_116_869
*3303 FILLER_116_881
*3304 FILLER_116_893
*3305 FILLER_116_905
*3306 FILLER_116_917
*3307 FILLER_116_923
*3308 FILLER_116_925
*3309 FILLER_116_937
*3310 FILLER_116_949
*3311 FILLER_116_961
*3312 FILLER_116_97
*3313 FILLER_116_973
*3314 FILLER_116_979
*3315 FILLER_116_981
*3316 FILLER_116_993
*3317 FILLER_117_1001
*3318 FILLER_117_1007
*3319 FILLER_117_1009
*3320 FILLER_117_1021
*3321 FILLER_117_1033
*3322 FILLER_117_1045
*3323 FILLER_117_105
*3324 FILLER_117_1057
*3325 FILLER_117_1063
*3326 FILLER_117_1065
*3327 FILLER_117_1077
*3328 FILLER_117_1089
*3329 FILLER_117_1101
*3330 FILLER_117_111
*3331 FILLER_117_1113
*3332 FILLER_117_1119
*3333 FILLER_117_1121
*3334 FILLER_117_113
*3335 FILLER_117_1133
*3336 FILLER_117_1145
*3337 FILLER_117_1157
*3338 FILLER_117_1169
*3339 FILLER_117_1175
*3340 FILLER_117_1177
*3341 FILLER_117_1189
*3342 FILLER_117_1201
*3343 FILLER_117_1213
*3344 FILLER_117_1225
*3345 FILLER_117_1231
*3346 FILLER_117_1233
*3347 FILLER_117_1245
*3348 FILLER_117_125
*3349 FILLER_117_1257
*3350 FILLER_117_1269
*3351 FILLER_117_1276
*3352 FILLER_117_137
*3353 FILLER_117_149
*3354 FILLER_117_161
*3355 FILLER_117_167
*3356 FILLER_117_169
*3357 FILLER_117_181
*3358 FILLER_117_19
*3359 FILLER_117_193
*3360 FILLER_117_205
*3361 FILLER_117_217
*3362 FILLER_117_223
*3363 FILLER_117_225
*3364 FILLER_117_237
*3365 FILLER_117_249
*3366 FILLER_117_261
*3367 FILLER_117_273
*3368 FILLER_117_279
*3369 FILLER_117_281
*3370 FILLER_117_293
*3371 FILLER_117_3
*3372 FILLER_117_305
*3373 FILLER_117_31
*3374 FILLER_117_317
*3375 FILLER_117_329
*3376 FILLER_117_335
*3377 FILLER_117_337
*3378 FILLER_117_349
*3379 FILLER_117_361
*3380 FILLER_117_373
*3381 FILLER_117_385
*3382 FILLER_117_391
*3383 FILLER_117_393
*3384 FILLER_117_405
*3385 FILLER_117_417
*3386 FILLER_117_429
*3387 FILLER_117_43
*3388 FILLER_117_441
*3389 FILLER_117_447
*3390 FILLER_117_449
*3391 FILLER_117_461
*3392 FILLER_117_473
*3393 FILLER_117_485
*3394 FILLER_117_497
*3395 FILLER_117_503
*3396 FILLER_117_505
*3397 FILLER_117_517
*3398 FILLER_117_529
*3399 FILLER_117_541
*3400 FILLER_117_55
*3401 FILLER_117_553
*3402 FILLER_117_559
*3403 FILLER_117_561
*3404 FILLER_117_57
*3405 FILLER_117_573
*3406 FILLER_117_585
*3407 FILLER_117_597
*3408 FILLER_117_609
*3409 FILLER_117_615
*3410 FILLER_117_617
*3411 FILLER_117_629
*3412 FILLER_117_641
*3413 FILLER_117_653
*3414 FILLER_117_665
*3415 FILLER_117_671
*3416 FILLER_117_673
*3417 FILLER_117_685
*3418 FILLER_117_69
*3419 FILLER_117_697
*3420 FILLER_117_7
*3421 FILLER_117_709
*3422 FILLER_117_721
*3423 FILLER_117_727
*3424 FILLER_117_729
*3425 FILLER_117_741
*3426 FILLER_117_753
*3427 FILLER_117_765
*3428 FILLER_117_777
*3429 FILLER_117_783
*3430 FILLER_117_785
*3431 FILLER_117_797
*3432 FILLER_117_809
*3433 FILLER_117_81
*3434 FILLER_117_821
*3435 FILLER_117_833
*3436 FILLER_117_839
*3437 FILLER_117_841
*3438 FILLER_117_853
*3439 FILLER_117_865
*3440 FILLER_117_877
*3441 FILLER_117_889
*3442 FILLER_117_895
*3443 FILLER_117_897
*3444 FILLER_117_909
*3445 FILLER_117_921
*3446 FILLER_117_93
*3447 FILLER_117_933
*3448 FILLER_117_945
*3449 FILLER_117_951
*3450 FILLER_117_953
*3451 FILLER_117_965
*3452 FILLER_117_977
*3453 FILLER_117_989
*3454 FILLER_118_1005
*3455 FILLER_118_1017
*3456 FILLER_118_1029
*3457 FILLER_118_1035
*3458 FILLER_118_1037
*3459 FILLER_118_1049
*3460 FILLER_118_1061
*3461 FILLER_118_1073
*3462 FILLER_118_1085
*3463 FILLER_118_109
*3464 FILLER_118_1091
*3465 FILLER_118_1093
*3466 FILLER_118_1105
*3467 FILLER_118_1117
*3468 FILLER_118_1129
*3469 FILLER_118_1141
*3470 FILLER_118_1147
*3471 FILLER_118_1149
*3472 FILLER_118_1161
*3473 FILLER_118_1173
*3474 FILLER_118_1185
*3475 FILLER_118_1197
*3476 FILLER_118_1203
*3477 FILLER_118_1205
*3478 FILLER_118_121
*3479 FILLER_118_1217
*3480 FILLER_118_1229
*3481 FILLER_118_1241
*3482 FILLER_118_1253
*3483 FILLER_118_1259
*3484 FILLER_118_1261
*3485 FILLER_118_1267
*3486 FILLER_118_1275
*3487 FILLER_118_133
*3488 FILLER_118_139
*3489 FILLER_118_141
*3490 FILLER_118_15
*3491 FILLER_118_153
*3492 FILLER_118_165
*3493 FILLER_118_177
*3494 FILLER_118_189
*3495 FILLER_118_195
*3496 FILLER_118_197
*3497 FILLER_118_209
*3498 FILLER_118_221
*3499 FILLER_118_233
*3500 FILLER_118_245
*3501 FILLER_118_251
*3502 FILLER_118_253
*3503 FILLER_118_265
*3504 FILLER_118_27
*3505 FILLER_118_277
*3506 FILLER_118_289
*3507 FILLER_118_29
*3508 FILLER_118_3
*3509 FILLER_118_301
*3510 FILLER_118_307
*3511 FILLER_118_309
*3512 FILLER_118_321
*3513 FILLER_118_333
*3514 FILLER_118_345
*3515 FILLER_118_357
*3516 FILLER_118_363
*3517 FILLER_118_365
*3518 FILLER_118_377
*3519 FILLER_118_389
*3520 FILLER_118_401
*3521 FILLER_118_41
*3522 FILLER_118_413
*3523 FILLER_118_419
*3524 FILLER_118_421
*3525 FILLER_118_433
*3526 FILLER_118_445
*3527 FILLER_118_457
*3528 FILLER_118_469
*3529 FILLER_118_475
*3530 FILLER_118_477
*3531 FILLER_118_489
*3532 FILLER_118_501
*3533 FILLER_118_513
*3534 FILLER_118_525
*3535 FILLER_118_53
*3536 FILLER_118_531
*3537 FILLER_118_533
*3538 FILLER_118_545
*3539 FILLER_118_557
*3540 FILLER_118_569
*3541 FILLER_118_581
*3542 FILLER_118_587
*3543 FILLER_118_589
*3544 FILLER_118_601
*3545 FILLER_118_613
*3546 FILLER_118_625
*3547 FILLER_118_637
*3548 FILLER_118_643
*3549 FILLER_118_645
*3550 FILLER_118_65
*3551 FILLER_118_657
*3552 FILLER_118_669
*3553 FILLER_118_681
*3554 FILLER_118_693
*3555 FILLER_118_699
*3556 FILLER_118_701
*3557 FILLER_118_713
*3558 FILLER_118_725
*3559 FILLER_118_737
*3560 FILLER_118_749
*3561 FILLER_118_755
*3562 FILLER_118_757
*3563 FILLER_118_769
*3564 FILLER_118_77
*3565 FILLER_118_781
*3566 FILLER_118_793
*3567 FILLER_118_805
*3568 FILLER_118_811
*3569 FILLER_118_813
*3570 FILLER_118_825
*3571 FILLER_118_83
*3572 FILLER_118_837
*3573 FILLER_118_849
*3574 FILLER_118_85
*3575 FILLER_118_861
*3576 FILLER_118_867
*3577 FILLER_118_869
*3578 FILLER_118_881
*3579 FILLER_118_893
*3580 FILLER_118_905
*3581 FILLER_118_917
*3582 FILLER_118_923
*3583 FILLER_118_925
*3584 FILLER_118_937
*3585 FILLER_118_949
*3586 FILLER_118_961
*3587 FILLER_118_97
*3588 FILLER_118_973
*3589 FILLER_118_979
*3590 FILLER_118_981
*3591 FILLER_118_993
*3592 FILLER_119_1001
*3593 FILLER_119_1007
*3594 FILLER_119_1009
*3595 FILLER_119_1021
*3596 FILLER_119_1033
*3597 FILLER_119_1045
*3598 FILLER_119_105
*3599 FILLER_119_1057
*3600 FILLER_119_1063
*3601 FILLER_119_1065
*3602 FILLER_119_1077
*3603 FILLER_119_1089
*3604 FILLER_119_1101
*3605 FILLER_119_111
*3606 FILLER_119_1113
*3607 FILLER_119_1119
*3608 FILLER_119_1121
*3609 FILLER_119_113
*3610 FILLER_119_1133
*3611 FILLER_119_1145
*3612 FILLER_119_1157
*3613 FILLER_119_1169
*3614 FILLER_119_1175
*3615 FILLER_119_1177
*3616 FILLER_119_1189
*3617 FILLER_119_1201
*3618 FILLER_119_1213
*3619 FILLER_119_1225
*3620 FILLER_119_1231
*3621 FILLER_119_1233
*3622 FILLER_119_1245
*3623 FILLER_119_125
*3624 FILLER_119_1257
*3625 FILLER_119_1269
*3626 FILLER_119_1276
*3627 FILLER_119_137
*3628 FILLER_119_149
*3629 FILLER_119_161
*3630 FILLER_119_167
*3631 FILLER_119_169
*3632 FILLER_119_181
*3633 FILLER_119_19
*3634 FILLER_119_193
*3635 FILLER_119_205
*3636 FILLER_119_217
*3637 FILLER_119_223
*3638 FILLER_119_225
*3639 FILLER_119_237
*3640 FILLER_119_249
*3641 FILLER_119_261
*3642 FILLER_119_273
*3643 FILLER_119_279
*3644 FILLER_119_281
*3645 FILLER_119_293
*3646 FILLER_119_3
*3647 FILLER_119_305
*3648 FILLER_119_31
*3649 FILLER_119_317
*3650 FILLER_119_329
*3651 FILLER_119_335
*3652 FILLER_119_337
*3653 FILLER_119_349
*3654 FILLER_119_361
*3655 FILLER_119_373
*3656 FILLER_119_385
*3657 FILLER_119_391
*3658 FILLER_119_393
*3659 FILLER_119_405
*3660 FILLER_119_417
*3661 FILLER_119_429
*3662 FILLER_119_43
*3663 FILLER_119_441
*3664 FILLER_119_447
*3665 FILLER_119_449
*3666 FILLER_119_461
*3667 FILLER_119_473
*3668 FILLER_119_485
*3669 FILLER_119_497
*3670 FILLER_119_503
*3671 FILLER_119_505
*3672 FILLER_119_517
*3673 FILLER_119_529
*3674 FILLER_119_541
*3675 FILLER_119_55
*3676 FILLER_119_553
*3677 FILLER_119_559
*3678 FILLER_119_561
*3679 FILLER_119_57
*3680 FILLER_119_573
*3681 FILLER_119_585
*3682 FILLER_119_597
*3683 FILLER_119_609
*3684 FILLER_119_615
*3685 FILLER_119_617
*3686 FILLER_119_629
*3687 FILLER_119_641
*3688 FILLER_119_653
*3689 FILLER_119_665
*3690 FILLER_119_671
*3691 FILLER_119_673
*3692 FILLER_119_685
*3693 FILLER_119_69
*3694 FILLER_119_697
*3695 FILLER_119_7
*3696 FILLER_119_709
*3697 FILLER_119_721
*3698 FILLER_119_727
*3699 FILLER_119_729
*3700 FILLER_119_741
*3701 FILLER_119_753
*3702 FILLER_119_765
*3703 FILLER_119_777
*3704 FILLER_119_783
*3705 FILLER_119_785
*3706 FILLER_119_797
*3707 FILLER_119_809
*3708 FILLER_119_81
*3709 FILLER_119_821
*3710 FILLER_119_833
*3711 FILLER_119_839
*3712 FILLER_119_841
*3713 FILLER_119_853
*3714 FILLER_119_865
*3715 FILLER_119_877
*3716 FILLER_119_889
*3717 FILLER_119_895
*3718 FILLER_119_897
*3719 FILLER_119_909
*3720 FILLER_119_921
*3721 FILLER_119_93
*3722 FILLER_119_933
*3723 FILLER_119_945
*3724 FILLER_119_951
*3725 FILLER_119_953
*3726 FILLER_119_965
*3727 FILLER_119_977
*3728 FILLER_119_989
*3729 FILLER_11_1001
*3730 FILLER_11_1007
*3731 FILLER_11_1009
*3732 FILLER_11_1021
*3733 FILLER_11_1033
*3734 FILLER_11_1045
*3735 FILLER_11_105
*3736 FILLER_11_1057
*3737 FILLER_11_1063
*3738 FILLER_11_1065
*3739 FILLER_11_1077
*3740 FILLER_11_1089
*3741 FILLER_11_1101
*3742 FILLER_11_111
*3743 FILLER_11_1113
*3744 FILLER_11_1119
*3745 FILLER_11_1121
*3746 FILLER_11_113
*3747 FILLER_11_1133
*3748 FILLER_11_1145
*3749 FILLER_11_1157
*3750 FILLER_11_1169
*3751 FILLER_11_1175
*3752 FILLER_11_1177
*3753 FILLER_11_1189
*3754 FILLER_11_1201
*3755 FILLER_11_1213
*3756 FILLER_11_1225
*3757 FILLER_11_1231
*3758 FILLER_11_1233
*3759 FILLER_11_1245
*3760 FILLER_11_125
*3761 FILLER_11_1257
*3762 FILLER_11_1269
*3763 FILLER_11_137
*3764 FILLER_11_149
*3765 FILLER_11_15
*3766 FILLER_11_161
*3767 FILLER_11_167
*3768 FILLER_11_169
*3769 FILLER_11_181
*3770 FILLER_11_193
*3771 FILLER_11_205
*3772 FILLER_11_217
*3773 FILLER_11_223
*3774 FILLER_11_225
*3775 FILLER_11_237
*3776 FILLER_11_249
*3777 FILLER_11_261
*3778 FILLER_11_27
*3779 FILLER_11_273
*3780 FILLER_11_279
*3781 FILLER_11_281
*3782 FILLER_11_293
*3783 FILLER_11_3
*3784 FILLER_11_305
*3785 FILLER_11_317
*3786 FILLER_11_329
*3787 FILLER_11_335
*3788 FILLER_11_337
*3789 FILLER_11_349
*3790 FILLER_11_361
*3791 FILLER_11_373
*3792 FILLER_11_385
*3793 FILLER_11_39
*3794 FILLER_11_391
*3795 FILLER_11_393
*3796 FILLER_11_405
*3797 FILLER_11_417
*3798 FILLER_11_429
*3799 FILLER_11_441
*3800 FILLER_11_447
*3801 FILLER_11_449
*3802 FILLER_11_461
*3803 FILLER_11_473
*3804 FILLER_11_485
*3805 FILLER_11_497
*3806 FILLER_11_503
*3807 FILLER_11_505
*3808 FILLER_11_51
*3809 FILLER_11_517
*3810 FILLER_11_529
*3811 FILLER_11_541
*3812 FILLER_11_55
*3813 FILLER_11_553
*3814 FILLER_11_559
*3815 FILLER_11_561
*3816 FILLER_11_57
*3817 FILLER_11_573
*3818 FILLER_11_585
*3819 FILLER_11_597
*3820 FILLER_11_609
*3821 FILLER_11_615
*3822 FILLER_11_617
*3823 FILLER_11_629
*3824 FILLER_11_641
*3825 FILLER_11_653
*3826 FILLER_11_665
*3827 FILLER_11_671
*3828 FILLER_11_673
*3829 FILLER_11_685
*3830 FILLER_11_69
*3831 FILLER_11_697
*3832 FILLER_11_709
*3833 FILLER_11_721
*3834 FILLER_11_727
*3835 FILLER_11_729
*3836 FILLER_11_741
*3837 FILLER_11_753
*3838 FILLER_11_765
*3839 FILLER_11_777
*3840 FILLER_11_783
*3841 FILLER_11_785
*3842 FILLER_11_797
*3843 FILLER_11_809
*3844 FILLER_11_81
*3845 FILLER_11_821
*3846 FILLER_11_833
*3847 FILLER_11_839
*3848 FILLER_11_841
*3849 FILLER_11_853
*3850 FILLER_11_865
*3851 FILLER_11_877
*3852 FILLER_11_889
*3853 FILLER_11_895
*3854 FILLER_11_897
*3855 FILLER_11_909
*3856 FILLER_11_921
*3857 FILLER_11_93
*3858 FILLER_11_933
*3859 FILLER_11_945
*3860 FILLER_11_951
*3861 FILLER_11_953
*3862 FILLER_11_965
*3863 FILLER_11_977
*3864 FILLER_11_989
*3865 FILLER_120_1005
*3866 FILLER_120_1017
*3867 FILLER_120_1029
*3868 FILLER_120_1035
*3869 FILLER_120_1037
*3870 FILLER_120_1049
*3871 FILLER_120_1061
*3872 FILLER_120_1073
*3873 FILLER_120_1085
*3874 FILLER_120_109
*3875 FILLER_120_1091
*3876 FILLER_120_1093
*3877 FILLER_120_11
*3878 FILLER_120_1105
*3879 FILLER_120_1117
*3880 FILLER_120_1129
*3881 FILLER_120_1141
*3882 FILLER_120_1147
*3883 FILLER_120_1149
*3884 FILLER_120_1161
*3885 FILLER_120_1173
*3886 FILLER_120_1185
*3887 FILLER_120_1197
*3888 FILLER_120_1203
*3889 FILLER_120_1205
*3890 FILLER_120_121
*3891 FILLER_120_1217
*3892 FILLER_120_1229
*3893 FILLER_120_1241
*3894 FILLER_120_1253
*3895 FILLER_120_1259
*3896 FILLER_120_1261
*3897 FILLER_120_1269
*3898 FILLER_120_1276
*3899 FILLER_120_133
*3900 FILLER_120_139
*3901 FILLER_120_14
*3902 FILLER_120_141
*3903 FILLER_120_153
*3904 FILLER_120_165
*3905 FILLER_120_177
*3906 FILLER_120_189
*3907 FILLER_120_195
*3908 FILLER_120_197
*3909 FILLER_120_209
*3910 FILLER_120_221
*3911 FILLER_120_233
*3912 FILLER_120_245
*3913 FILLER_120_251
*3914 FILLER_120_253
*3915 FILLER_120_26
*3916 FILLER_120_265
*3917 FILLER_120_277
*3918 FILLER_120_289
*3919 FILLER_120_29
*3920 FILLER_120_3
*3921 FILLER_120_301
*3922 FILLER_120_307
*3923 FILLER_120_309
*3924 FILLER_120_321
*3925 FILLER_120_333
*3926 FILLER_120_345
*3927 FILLER_120_357
*3928 FILLER_120_363
*3929 FILLER_120_365
*3930 FILLER_120_377
*3931 FILLER_120_389
*3932 FILLER_120_401
*3933 FILLER_120_41
*3934 FILLER_120_413
*3935 FILLER_120_419
*3936 FILLER_120_421
*3937 FILLER_120_433
*3938 FILLER_120_445
*3939 FILLER_120_457
*3940 FILLER_120_469
*3941 FILLER_120_475
*3942 FILLER_120_477
*3943 FILLER_120_489
*3944 FILLER_120_501
*3945 FILLER_120_513
*3946 FILLER_120_525
*3947 FILLER_120_53
*3948 FILLER_120_531
*3949 FILLER_120_533
*3950 FILLER_120_545
*3951 FILLER_120_557
*3952 FILLER_120_569
*3953 FILLER_120_581
*3954 FILLER_120_587
*3955 FILLER_120_589
*3956 FILLER_120_601
*3957 FILLER_120_613
*3958 FILLER_120_625
*3959 FILLER_120_637
*3960 FILLER_120_643
*3961 FILLER_120_645
*3962 FILLER_120_65
*3963 FILLER_120_657
*3964 FILLER_120_669
*3965 FILLER_120_681
*3966 FILLER_120_693
*3967 FILLER_120_699
*3968 FILLER_120_7
*3969 FILLER_120_701
*3970 FILLER_120_713
*3971 FILLER_120_725
*3972 FILLER_120_737
*3973 FILLER_120_749
*3974 FILLER_120_755
*3975 FILLER_120_757
*3976 FILLER_120_769
*3977 FILLER_120_77
*3978 FILLER_120_781
*3979 FILLER_120_793
*3980 FILLER_120_805
*3981 FILLER_120_811
*3982 FILLER_120_813
*3983 FILLER_120_825
*3984 FILLER_120_83
*3985 FILLER_120_837
*3986 FILLER_120_849
*3987 FILLER_120_85
*3988 FILLER_120_861
*3989 FILLER_120_867
*3990 FILLER_120_869
*3991 FILLER_120_881
*3992 FILLER_120_893
*3993 FILLER_120_905
*3994 FILLER_120_917
*3995 FILLER_120_923
*3996 FILLER_120_925
*3997 FILLER_120_937
*3998 FILLER_120_949
*3999 FILLER_120_961
*4000 FILLER_120_97
*4001 FILLER_120_973
*4002 FILLER_120_979
*4003 FILLER_120_981
*4004 FILLER_120_993
*4005 FILLER_121_1001
*4006 FILLER_121_1007
*4007 FILLER_121_1009
*4008 FILLER_121_1021
*4009 FILLER_121_1033
*4010 FILLER_121_1045
*4011 FILLER_121_105
*4012 FILLER_121_1057
*4013 FILLER_121_1063
*4014 FILLER_121_1065
*4015 FILLER_121_1077
*4016 FILLER_121_1089
*4017 FILLER_121_11
*4018 FILLER_121_1101
*4019 FILLER_121_111
*4020 FILLER_121_1113
*4021 FILLER_121_1119
*4022 FILLER_121_1121
*4023 FILLER_121_113
*4024 FILLER_121_1133
*4025 FILLER_121_1145
*4026 FILLER_121_1157
*4027 FILLER_121_1169
*4028 FILLER_121_1175
*4029 FILLER_121_1177
*4030 FILLER_121_1189
*4031 FILLER_121_1201
*4032 FILLER_121_1213
*4033 FILLER_121_1225
*4034 FILLER_121_1231
*4035 FILLER_121_1233
*4036 FILLER_121_1245
*4037 FILLER_121_125
*4038 FILLER_121_1257
*4039 FILLER_121_1269
*4040 FILLER_121_1276
*4041 FILLER_121_137
*4042 FILLER_121_149
*4043 FILLER_121_15
*4044 FILLER_121_161
*4045 FILLER_121_167
*4046 FILLER_121_169
*4047 FILLER_121_181
*4048 FILLER_121_193
*4049 FILLER_121_205
*4050 FILLER_121_217
*4051 FILLER_121_223
*4052 FILLER_121_225
*4053 FILLER_121_237
*4054 FILLER_121_249
*4055 FILLER_121_261
*4056 FILLER_121_27
*4057 FILLER_121_273
*4058 FILLER_121_279
*4059 FILLER_121_281
*4060 FILLER_121_293
*4061 FILLER_121_3
*4062 FILLER_121_305
*4063 FILLER_121_317
*4064 FILLER_121_329
*4065 FILLER_121_335
*4066 FILLER_121_337
*4067 FILLER_121_349
*4068 FILLER_121_361
*4069 FILLER_121_373
*4070 FILLER_121_385
*4071 FILLER_121_39
*4072 FILLER_121_391
*4073 FILLER_121_393
*4074 FILLER_121_405
*4075 FILLER_121_417
*4076 FILLER_121_429
*4077 FILLER_121_441
*4078 FILLER_121_447
*4079 FILLER_121_449
*4080 FILLER_121_461
*4081 FILLER_121_473
*4082 FILLER_121_485
*4083 FILLER_121_497
*4084 FILLER_121_503
*4085 FILLER_121_505
*4086 FILLER_121_51
*4087 FILLER_121_517
*4088 FILLER_121_529
*4089 FILLER_121_541
*4090 FILLER_121_55
*4091 FILLER_121_553
*4092 FILLER_121_559
*4093 FILLER_121_561
*4094 FILLER_121_57
*4095 FILLER_121_573
*4096 FILLER_121_585
*4097 FILLER_121_597
*4098 FILLER_121_609
*4099 FILLER_121_615
*4100 FILLER_121_617
*4101 FILLER_121_629
*4102 FILLER_121_641
*4103 FILLER_121_653
*4104 FILLER_121_665
*4105 FILLER_121_671
*4106 FILLER_121_673
*4107 FILLER_121_685
*4108 FILLER_121_69
*4109 FILLER_121_697
*4110 FILLER_121_7
*4111 FILLER_121_709
*4112 FILLER_121_721
*4113 FILLER_121_727
*4114 FILLER_121_729
*4115 FILLER_121_741
*4116 FILLER_121_753
*4117 FILLER_121_765
*4118 FILLER_121_777
*4119 FILLER_121_783
*4120 FILLER_121_785
*4121 FILLER_121_797
*4122 FILLER_121_809
*4123 FILLER_121_81
*4124 FILLER_121_821
*4125 FILLER_121_833
*4126 FILLER_121_839
*4127 FILLER_121_841
*4128 FILLER_121_853
*4129 FILLER_121_865
*4130 FILLER_121_877
*4131 FILLER_121_889
*4132 FILLER_121_895
*4133 FILLER_121_897
*4134 FILLER_121_909
*4135 FILLER_121_921
*4136 FILLER_121_93
*4137 FILLER_121_933
*4138 FILLER_121_945
*4139 FILLER_121_951
*4140 FILLER_121_953
*4141 FILLER_121_965
*4142 FILLER_121_977
*4143 FILLER_121_989
*4144 FILLER_122_1005
*4145 FILLER_122_1017
*4146 FILLER_122_1029
*4147 FILLER_122_1035
*4148 FILLER_122_1037
*4149 FILLER_122_1049
*4150 FILLER_122_1061
*4151 FILLER_122_1073
*4152 FILLER_122_1085
*4153 FILLER_122_109
*4154 FILLER_122_1091
*4155 FILLER_122_1093
*4156 FILLER_122_1105
*4157 FILLER_122_1117
*4158 FILLER_122_1129
*4159 FILLER_122_1141
*4160 FILLER_122_1147
*4161 FILLER_122_1149
*4162 FILLER_122_1161
*4163 FILLER_122_1173
*4164 FILLER_122_1185
*4165 FILLER_122_1197
*4166 FILLER_122_1203
*4167 FILLER_122_1205
*4168 FILLER_122_121
*4169 FILLER_122_1217
*4170 FILLER_122_1229
*4171 FILLER_122_1241
*4172 FILLER_122_1253
*4173 FILLER_122_1259
*4174 FILLER_122_1261
*4175 FILLER_122_1276
*4176 FILLER_122_133
*4177 FILLER_122_139
*4178 FILLER_122_141
*4179 FILLER_122_153
*4180 FILLER_122_165
*4181 FILLER_122_177
*4182 FILLER_122_189
*4183 FILLER_122_19
*4184 FILLER_122_195
*4185 FILLER_122_197
*4186 FILLER_122_209
*4187 FILLER_122_221
*4188 FILLER_122_233
*4189 FILLER_122_245
*4190 FILLER_122_251
*4191 FILLER_122_253
*4192 FILLER_122_265
*4193 FILLER_122_27
*4194 FILLER_122_277
*4195 FILLER_122_289
*4196 FILLER_122_29
*4197 FILLER_122_3
*4198 FILLER_122_301
*4199 FILLER_122_307
*4200 FILLER_122_309
*4201 FILLER_122_321
*4202 FILLER_122_333
*4203 FILLER_122_345
*4204 FILLER_122_357
*4205 FILLER_122_363
*4206 FILLER_122_365
*4207 FILLER_122_377
*4208 FILLER_122_389
*4209 FILLER_122_401
*4210 FILLER_122_41
*4211 FILLER_122_413
*4212 FILLER_122_419
*4213 FILLER_122_421
*4214 FILLER_122_433
*4215 FILLER_122_445
*4216 FILLER_122_457
*4217 FILLER_122_469
*4218 FILLER_122_475
*4219 FILLER_122_477
*4220 FILLER_122_489
*4221 FILLER_122_501
*4222 FILLER_122_513
*4223 FILLER_122_525
*4224 FILLER_122_53
*4225 FILLER_122_531
*4226 FILLER_122_533
*4227 FILLER_122_545
*4228 FILLER_122_557
*4229 FILLER_122_569
*4230 FILLER_122_581
*4231 FILLER_122_587
*4232 FILLER_122_589
*4233 FILLER_122_601
*4234 FILLER_122_613
*4235 FILLER_122_625
*4236 FILLER_122_637
*4237 FILLER_122_643
*4238 FILLER_122_645
*4239 FILLER_122_65
*4240 FILLER_122_657
*4241 FILLER_122_669
*4242 FILLER_122_681
*4243 FILLER_122_693
*4244 FILLER_122_699
*4245 FILLER_122_7
*4246 FILLER_122_701
*4247 FILLER_122_713
*4248 FILLER_122_725
*4249 FILLER_122_737
*4250 FILLER_122_749
*4251 FILLER_122_755
*4252 FILLER_122_757
*4253 FILLER_122_769
*4254 FILLER_122_77
*4255 FILLER_122_781
*4256 FILLER_122_793
*4257 FILLER_122_805
*4258 FILLER_122_811
*4259 FILLER_122_813
*4260 FILLER_122_825
*4261 FILLER_122_83
*4262 FILLER_122_837
*4263 FILLER_122_849
*4264 FILLER_122_85
*4265 FILLER_122_861
*4266 FILLER_122_867
*4267 FILLER_122_869
*4268 FILLER_122_881
*4269 FILLER_122_893
*4270 FILLER_122_905
*4271 FILLER_122_917
*4272 FILLER_122_923
*4273 FILLER_122_925
*4274 FILLER_122_937
*4275 FILLER_122_949
*4276 FILLER_122_961
*4277 FILLER_122_97
*4278 FILLER_122_973
*4279 FILLER_122_979
*4280 FILLER_122_981
*4281 FILLER_122_993
*4282 FILLER_123_1001
*4283 FILLER_123_1007
*4284 FILLER_123_1009
*4285 FILLER_123_1021
*4286 FILLER_123_1033
*4287 FILLER_123_1045
*4288 FILLER_123_105
*4289 FILLER_123_1057
*4290 FILLER_123_1063
*4291 FILLER_123_1065
*4292 FILLER_123_1077
*4293 FILLER_123_1089
*4294 FILLER_123_1101
*4295 FILLER_123_111
*4296 FILLER_123_1113
*4297 FILLER_123_1119
*4298 FILLER_123_1121
*4299 FILLER_123_113
*4300 FILLER_123_1133
*4301 FILLER_123_1145
*4302 FILLER_123_1157
*4303 FILLER_123_1169
*4304 FILLER_123_1175
*4305 FILLER_123_1177
*4306 FILLER_123_1189
*4307 FILLER_123_1201
*4308 FILLER_123_1213
*4309 FILLER_123_1225
*4310 FILLER_123_1231
*4311 FILLER_123_1233
*4312 FILLER_123_1245
*4313 FILLER_123_125
*4314 FILLER_123_1257
*4315 FILLER_123_1269
*4316 FILLER_123_137
*4317 FILLER_123_149
*4318 FILLER_123_15
*4319 FILLER_123_161
*4320 FILLER_123_167
*4321 FILLER_123_169
*4322 FILLER_123_181
*4323 FILLER_123_193
*4324 FILLER_123_205
*4325 FILLER_123_217
*4326 FILLER_123_223
*4327 FILLER_123_225
*4328 FILLER_123_237
*4329 FILLER_123_249
*4330 FILLER_123_261
*4331 FILLER_123_27
*4332 FILLER_123_273
*4333 FILLER_123_279
*4334 FILLER_123_281
*4335 FILLER_123_293
*4336 FILLER_123_3
*4337 FILLER_123_305
*4338 FILLER_123_317
*4339 FILLER_123_329
*4340 FILLER_123_335
*4341 FILLER_123_337
*4342 FILLER_123_349
*4343 FILLER_123_361
*4344 FILLER_123_373
*4345 FILLER_123_385
*4346 FILLER_123_39
*4347 FILLER_123_391
*4348 FILLER_123_393
*4349 FILLER_123_405
*4350 FILLER_123_417
*4351 FILLER_123_429
*4352 FILLER_123_441
*4353 FILLER_123_447
*4354 FILLER_123_449
*4355 FILLER_123_461
*4356 FILLER_123_473
*4357 FILLER_123_485
*4358 FILLER_123_497
*4359 FILLER_123_503
*4360 FILLER_123_505
*4361 FILLER_123_51
*4362 FILLER_123_517
*4363 FILLER_123_529
*4364 FILLER_123_541
*4365 FILLER_123_55
*4366 FILLER_123_553
*4367 FILLER_123_559
*4368 FILLER_123_561
*4369 FILLER_123_57
*4370 FILLER_123_573
*4371 FILLER_123_585
*4372 FILLER_123_597
*4373 FILLER_123_609
*4374 FILLER_123_615
*4375 FILLER_123_617
*4376 FILLER_123_629
*4377 FILLER_123_641
*4378 FILLER_123_653
*4379 FILLER_123_665
*4380 FILLER_123_671
*4381 FILLER_123_673
*4382 FILLER_123_685
*4383 FILLER_123_69
*4384 FILLER_123_697
*4385 FILLER_123_709
*4386 FILLER_123_721
*4387 FILLER_123_727
*4388 FILLER_123_729
*4389 FILLER_123_741
*4390 FILLER_123_753
*4391 FILLER_123_765
*4392 FILLER_123_777
*4393 FILLER_123_783
*4394 FILLER_123_785
*4395 FILLER_123_797
*4396 FILLER_123_809
*4397 FILLER_123_81
*4398 FILLER_123_821
*4399 FILLER_123_833
*4400 FILLER_123_839
*4401 FILLER_123_841
*4402 FILLER_123_853
*4403 FILLER_123_865
*4404 FILLER_123_877
*4405 FILLER_123_889
*4406 FILLER_123_895
*4407 FILLER_123_897
*4408 FILLER_123_909
*4409 FILLER_123_921
*4410 FILLER_123_93
*4411 FILLER_123_933
*4412 FILLER_123_945
*4413 FILLER_123_951
*4414 FILLER_123_953
*4415 FILLER_123_965
*4416 FILLER_123_977
*4417 FILLER_123_989
*4418 FILLER_124_1005
*4419 FILLER_124_1017
*4420 FILLER_124_1029
*4421 FILLER_124_1035
*4422 FILLER_124_1037
*4423 FILLER_124_1049
*4424 FILLER_124_1061
*4425 FILLER_124_1073
*4426 FILLER_124_1085
*4427 FILLER_124_109
*4428 FILLER_124_1091
*4429 FILLER_124_1093
*4430 FILLER_124_1105
*4431 FILLER_124_1117
*4432 FILLER_124_1129
*4433 FILLER_124_1141
*4434 FILLER_124_1147
*4435 FILLER_124_1149
*4436 FILLER_124_1161
*4437 FILLER_124_1173
*4438 FILLER_124_1185
*4439 FILLER_124_1197
*4440 FILLER_124_1203
*4441 FILLER_124_1205
*4442 FILLER_124_121
*4443 FILLER_124_1217
*4444 FILLER_124_1229
*4445 FILLER_124_1241
*4446 FILLER_124_1253
*4447 FILLER_124_1259
*4448 FILLER_124_1261
*4449 FILLER_124_1269
*4450 FILLER_124_1276
*4451 FILLER_124_133
*4452 FILLER_124_139
*4453 FILLER_124_141
*4454 FILLER_124_153
*4455 FILLER_124_165
*4456 FILLER_124_177
*4457 FILLER_124_189
*4458 FILLER_124_19
*4459 FILLER_124_195
*4460 FILLER_124_197
*4461 FILLER_124_209
*4462 FILLER_124_221
*4463 FILLER_124_233
*4464 FILLER_124_245
*4465 FILLER_124_251
*4466 FILLER_124_253
*4467 FILLER_124_265
*4468 FILLER_124_27
*4469 FILLER_124_277
*4470 FILLER_124_289
*4471 FILLER_124_29
*4472 FILLER_124_3
*4473 FILLER_124_301
*4474 FILLER_124_307
*4475 FILLER_124_309
*4476 FILLER_124_321
*4477 FILLER_124_333
*4478 FILLER_124_345
*4479 FILLER_124_357
*4480 FILLER_124_363
*4481 FILLER_124_365
*4482 FILLER_124_377
*4483 FILLER_124_389
*4484 FILLER_124_401
*4485 FILLER_124_41
*4486 FILLER_124_413
*4487 FILLER_124_419
*4488 FILLER_124_421
*4489 FILLER_124_433
*4490 FILLER_124_445
*4491 FILLER_124_457
*4492 FILLER_124_469
*4493 FILLER_124_475
*4494 FILLER_124_477
*4495 FILLER_124_489
*4496 FILLER_124_501
*4497 FILLER_124_513
*4498 FILLER_124_525
*4499 FILLER_124_53
*4500 FILLER_124_531
*4501 FILLER_124_533
*4502 FILLER_124_545
*4503 FILLER_124_557
*4504 FILLER_124_569
*4505 FILLER_124_581
*4506 FILLER_124_587
*4507 FILLER_124_589
*4508 FILLER_124_601
*4509 FILLER_124_613
*4510 FILLER_124_625
*4511 FILLER_124_637
*4512 FILLER_124_643
*4513 FILLER_124_645
*4514 FILLER_124_65
*4515 FILLER_124_657
*4516 FILLER_124_669
*4517 FILLER_124_681
*4518 FILLER_124_693
*4519 FILLER_124_699
*4520 FILLER_124_7
*4521 FILLER_124_701
*4522 FILLER_124_713
*4523 FILLER_124_725
*4524 FILLER_124_737
*4525 FILLER_124_749
*4526 FILLER_124_755
*4527 FILLER_124_757
*4528 FILLER_124_769
*4529 FILLER_124_77
*4530 FILLER_124_781
*4531 FILLER_124_793
*4532 FILLER_124_805
*4533 FILLER_124_811
*4534 FILLER_124_813
*4535 FILLER_124_825
*4536 FILLER_124_83
*4537 FILLER_124_837
*4538 FILLER_124_849
*4539 FILLER_124_85
*4540 FILLER_124_861
*4541 FILLER_124_867
*4542 FILLER_124_869
*4543 FILLER_124_881
*4544 FILLER_124_893
*4545 FILLER_124_905
*4546 FILLER_124_917
*4547 FILLER_124_923
*4548 FILLER_124_925
*4549 FILLER_124_937
*4550 FILLER_124_949
*4551 FILLER_124_961
*4552 FILLER_124_97
*4553 FILLER_124_973
*4554 FILLER_124_979
*4555 FILLER_124_981
*4556 FILLER_124_993
*4557 FILLER_125_1001
*4558 FILLER_125_1007
*4559 FILLER_125_1009
*4560 FILLER_125_1021
*4561 FILLER_125_1033
*4562 FILLER_125_1045
*4563 FILLER_125_105
*4564 FILLER_125_1057
*4565 FILLER_125_1063
*4566 FILLER_125_1065
*4567 FILLER_125_1077
*4568 FILLER_125_1089
*4569 FILLER_125_1101
*4570 FILLER_125_111
*4571 FILLER_125_1113
*4572 FILLER_125_1119
*4573 FILLER_125_1121
*4574 FILLER_125_113
*4575 FILLER_125_1133
*4576 FILLER_125_1145
*4577 FILLER_125_1157
*4578 FILLER_125_1169
*4579 FILLER_125_1175
*4580 FILLER_125_1177
*4581 FILLER_125_1189
*4582 FILLER_125_1201
*4583 FILLER_125_1213
*4584 FILLER_125_1225
*4585 FILLER_125_1231
*4586 FILLER_125_1233
*4587 FILLER_125_1245
*4588 FILLER_125_125
*4589 FILLER_125_1257
*4590 FILLER_125_1269
*4591 FILLER_125_1276
*4592 FILLER_125_137
*4593 FILLER_125_149
*4594 FILLER_125_161
*4595 FILLER_125_167
*4596 FILLER_125_169
*4597 FILLER_125_181
*4598 FILLER_125_19
*4599 FILLER_125_193
*4600 FILLER_125_205
*4601 FILLER_125_217
*4602 FILLER_125_223
*4603 FILLER_125_225
*4604 FILLER_125_237
*4605 FILLER_125_249
*4606 FILLER_125_261
*4607 FILLER_125_273
*4608 FILLER_125_279
*4609 FILLER_125_281
*4610 FILLER_125_293
*4611 FILLER_125_3
*4612 FILLER_125_305
*4613 FILLER_125_31
*4614 FILLER_125_317
*4615 FILLER_125_329
*4616 FILLER_125_335
*4617 FILLER_125_337
*4618 FILLER_125_349
*4619 FILLER_125_361
*4620 FILLER_125_373
*4621 FILLER_125_385
*4622 FILLER_125_391
*4623 FILLER_125_393
*4624 FILLER_125_405
*4625 FILLER_125_417
*4626 FILLER_125_429
*4627 FILLER_125_43
*4628 FILLER_125_441
*4629 FILLER_125_447
*4630 FILLER_125_449
*4631 FILLER_125_461
*4632 FILLER_125_473
*4633 FILLER_125_485
*4634 FILLER_125_497
*4635 FILLER_125_503
*4636 FILLER_125_505
*4637 FILLER_125_517
*4638 FILLER_125_529
*4639 FILLER_125_541
*4640 FILLER_125_55
*4641 FILLER_125_553
*4642 FILLER_125_559
*4643 FILLER_125_561
*4644 FILLER_125_57
*4645 FILLER_125_573
*4646 FILLER_125_585
*4647 FILLER_125_597
*4648 FILLER_125_609
*4649 FILLER_125_615
*4650 FILLER_125_617
*4651 FILLER_125_629
*4652 FILLER_125_641
*4653 FILLER_125_653
*4654 FILLER_125_665
*4655 FILLER_125_671
*4656 FILLER_125_673
*4657 FILLER_125_685
*4658 FILLER_125_69
*4659 FILLER_125_697
*4660 FILLER_125_7
*4661 FILLER_125_709
*4662 FILLER_125_721
*4663 FILLER_125_727
*4664 FILLER_125_729
*4665 FILLER_125_741
*4666 FILLER_125_753
*4667 FILLER_125_765
*4668 FILLER_125_777
*4669 FILLER_125_783
*4670 FILLER_125_785
*4671 FILLER_125_797
*4672 FILLER_125_809
*4673 FILLER_125_81
*4674 FILLER_125_821
*4675 FILLER_125_833
*4676 FILLER_125_839
*4677 FILLER_125_841
*4678 FILLER_125_853
*4679 FILLER_125_865
*4680 FILLER_125_877
*4681 FILLER_125_889
*4682 FILLER_125_895
*4683 FILLER_125_897
*4684 FILLER_125_909
*4685 FILLER_125_921
*4686 FILLER_125_93
*4687 FILLER_125_933
*4688 FILLER_125_945
*4689 FILLER_125_951
*4690 FILLER_125_953
*4691 FILLER_125_965
*4692 FILLER_125_977
*4693 FILLER_125_989
*4694 FILLER_126_1005
*4695 FILLER_126_1017
*4696 FILLER_126_1029
*4697 FILLER_126_1035
*4698 FILLER_126_1037
*4699 FILLER_126_1049
*4700 FILLER_126_1061
*4701 FILLER_126_1073
*4702 FILLER_126_1085
*4703 FILLER_126_109
*4704 FILLER_126_1091
*4705 FILLER_126_1093
*4706 FILLER_126_1105
*4707 FILLER_126_1117
*4708 FILLER_126_1129
*4709 FILLER_126_1141
*4710 FILLER_126_1147
*4711 FILLER_126_1149
*4712 FILLER_126_1161
*4713 FILLER_126_1173
*4714 FILLER_126_1185
*4715 FILLER_126_1197
*4716 FILLER_126_1203
*4717 FILLER_126_1205
*4718 FILLER_126_121
*4719 FILLER_126_1217
*4720 FILLER_126_1229
*4721 FILLER_126_1241
*4722 FILLER_126_1253
*4723 FILLER_126_1259
*4724 FILLER_126_1261
*4725 FILLER_126_1276
*4726 FILLER_126_133
*4727 FILLER_126_139
*4728 FILLER_126_141
*4729 FILLER_126_153
*4730 FILLER_126_165
*4731 FILLER_126_177
*4732 FILLER_126_189
*4733 FILLER_126_19
*4734 FILLER_126_195
*4735 FILLER_126_197
*4736 FILLER_126_209
*4737 FILLER_126_221
*4738 FILLER_126_233
*4739 FILLER_126_245
*4740 FILLER_126_251
*4741 FILLER_126_253
*4742 FILLER_126_265
*4743 FILLER_126_27
*4744 FILLER_126_277
*4745 FILLER_126_289
*4746 FILLER_126_29
*4747 FILLER_126_3
*4748 FILLER_126_301
*4749 FILLER_126_307
*4750 FILLER_126_309
*4751 FILLER_126_321
*4752 FILLER_126_333
*4753 FILLER_126_345
*4754 FILLER_126_357
*4755 FILLER_126_363
*4756 FILLER_126_365
*4757 FILLER_126_377
*4758 FILLER_126_389
*4759 FILLER_126_401
*4760 FILLER_126_41
*4761 FILLER_126_413
*4762 FILLER_126_419
*4763 FILLER_126_421
*4764 FILLER_126_433
*4765 FILLER_126_445
*4766 FILLER_126_457
*4767 FILLER_126_469
*4768 FILLER_126_475
*4769 FILLER_126_477
*4770 FILLER_126_489
*4771 FILLER_126_501
*4772 FILLER_126_513
*4773 FILLER_126_525
*4774 FILLER_126_53
*4775 FILLER_126_531
*4776 FILLER_126_533
*4777 FILLER_126_545
*4778 FILLER_126_557
*4779 FILLER_126_569
*4780 FILLER_126_581
*4781 FILLER_126_587
*4782 FILLER_126_589
*4783 FILLER_126_601
*4784 FILLER_126_613
*4785 FILLER_126_625
*4786 FILLER_126_637
*4787 FILLER_126_643
*4788 FILLER_126_645
*4789 FILLER_126_65
*4790 FILLER_126_657
*4791 FILLER_126_669
*4792 FILLER_126_681
*4793 FILLER_126_693
*4794 FILLER_126_699
*4795 FILLER_126_7
*4796 FILLER_126_701
*4797 FILLER_126_713
*4798 FILLER_126_725
*4799 FILLER_126_737
*4800 FILLER_126_749
*4801 FILLER_126_755
*4802 FILLER_126_757
*4803 FILLER_126_769
*4804 FILLER_126_77
*4805 FILLER_126_781
*4806 FILLER_126_793
*4807 FILLER_126_805
*4808 FILLER_126_811
*4809 FILLER_126_813
*4810 FILLER_126_825
*4811 FILLER_126_83
*4812 FILLER_126_837
*4813 FILLER_126_849
*4814 FILLER_126_85
*4815 FILLER_126_861
*4816 FILLER_126_867
*4817 FILLER_126_869
*4818 FILLER_126_881
*4819 FILLER_126_893
*4820 FILLER_126_905
*4821 FILLER_126_917
*4822 FILLER_126_923
*4823 FILLER_126_925
*4824 FILLER_126_937
*4825 FILLER_126_949
*4826 FILLER_126_961
*4827 FILLER_126_97
*4828 FILLER_126_973
*4829 FILLER_126_979
*4830 FILLER_126_981
*4831 FILLER_126_993
*4832 FILLER_127_1001
*4833 FILLER_127_1007
*4834 FILLER_127_1009
*4835 FILLER_127_1021
*4836 FILLER_127_1033
*4837 FILLER_127_1045
*4838 FILLER_127_105
*4839 FILLER_127_1057
*4840 FILLER_127_1063
*4841 FILLER_127_1065
*4842 FILLER_127_1077
*4843 FILLER_127_1089
*4844 FILLER_127_1101
*4845 FILLER_127_111
*4846 FILLER_127_1113
*4847 FILLER_127_1119
*4848 FILLER_127_1121
*4849 FILLER_127_113
*4850 FILLER_127_1133
*4851 FILLER_127_1145
*4852 FILLER_127_1157
*4853 FILLER_127_1169
*4854 FILLER_127_1175
*4855 FILLER_127_1177
*4856 FILLER_127_1189
*4857 FILLER_127_1201
*4858 FILLER_127_1213
*4859 FILLER_127_1225
*4860 FILLER_127_1231
*4861 FILLER_127_1233
*4862 FILLER_127_1245
*4863 FILLER_127_125
*4864 FILLER_127_1257
*4865 FILLER_127_1269
*4866 FILLER_127_1276
*4867 FILLER_127_137
*4868 FILLER_127_149
*4869 FILLER_127_161
*4870 FILLER_127_167
*4871 FILLER_127_169
*4872 FILLER_127_181
*4873 FILLER_127_19
*4874 FILLER_127_193
*4875 FILLER_127_205
*4876 FILLER_127_217
*4877 FILLER_127_223
*4878 FILLER_127_225
*4879 FILLER_127_237
*4880 FILLER_127_249
*4881 FILLER_127_261
*4882 FILLER_127_273
*4883 FILLER_127_279
*4884 FILLER_127_281
*4885 FILLER_127_293
*4886 FILLER_127_3
*4887 FILLER_127_305
*4888 FILLER_127_31
*4889 FILLER_127_317
*4890 FILLER_127_329
*4891 FILLER_127_335
*4892 FILLER_127_337
*4893 FILLER_127_349
*4894 FILLER_127_361
*4895 FILLER_127_373
*4896 FILLER_127_385
*4897 FILLER_127_391
*4898 FILLER_127_393
*4899 FILLER_127_405
*4900 FILLER_127_417
*4901 FILLER_127_429
*4902 FILLER_127_43
*4903 FILLER_127_441
*4904 FILLER_127_447
*4905 FILLER_127_449
*4906 FILLER_127_461
*4907 FILLER_127_473
*4908 FILLER_127_485
*4909 FILLER_127_497
*4910 FILLER_127_503
*4911 FILLER_127_505
*4912 FILLER_127_517
*4913 FILLER_127_529
*4914 FILLER_127_541
*4915 FILLER_127_55
*4916 FILLER_127_553
*4917 FILLER_127_559
*4918 FILLER_127_561
*4919 FILLER_127_57
*4920 FILLER_127_573
*4921 FILLER_127_585
*4922 FILLER_127_597
*4923 FILLER_127_609
*4924 FILLER_127_615
*4925 FILLER_127_617
*4926 FILLER_127_629
*4927 FILLER_127_641
*4928 FILLER_127_653
*4929 FILLER_127_665
*4930 FILLER_127_671
*4931 FILLER_127_673
*4932 FILLER_127_685
*4933 FILLER_127_69
*4934 FILLER_127_697
*4935 FILLER_127_7
*4936 FILLER_127_709
*4937 FILLER_127_721
*4938 FILLER_127_727
*4939 FILLER_127_729
*4940 FILLER_127_741
*4941 FILLER_127_753
*4942 FILLER_127_765
*4943 FILLER_127_777
*4944 FILLER_127_783
*4945 FILLER_127_785
*4946 FILLER_127_797
*4947 FILLER_127_809
*4948 FILLER_127_81
*4949 FILLER_127_821
*4950 FILLER_127_833
*4951 FILLER_127_839
*4952 FILLER_127_841
*4953 FILLER_127_853
*4954 FILLER_127_865
*4955 FILLER_127_877
*4956 FILLER_127_889
*4957 FILLER_127_895
*4958 FILLER_127_897
*4959 FILLER_127_909
*4960 FILLER_127_921
*4961 FILLER_127_93
*4962 FILLER_127_933
*4963 FILLER_127_945
*4964 FILLER_127_951
*4965 FILLER_127_953
*4966 FILLER_127_965
*4967 FILLER_127_977
*4968 FILLER_127_989
*4969 FILLER_128_1005
*4970 FILLER_128_1017
*4971 FILLER_128_1029
*4972 FILLER_128_1035
*4973 FILLER_128_1037
*4974 FILLER_128_1049
*4975 FILLER_128_1061
*4976 FILLER_128_1073
*4977 FILLER_128_1085
*4978 FILLER_128_109
*4979 FILLER_128_1091
*4980 FILLER_128_1093
*4981 FILLER_128_1105
*4982 FILLER_128_1117
*4983 FILLER_128_1129
*4984 FILLER_128_1141
*4985 FILLER_128_1147
*4986 FILLER_128_1149
*4987 FILLER_128_1161
*4988 FILLER_128_1173
*4989 FILLER_128_1185
*4990 FILLER_128_1197
*4991 FILLER_128_1203
*4992 FILLER_128_1205
*4993 FILLER_128_121
*4994 FILLER_128_1217
*4995 FILLER_128_1229
*4996 FILLER_128_1241
*4997 FILLER_128_1253
*4998 FILLER_128_1259
*4999 FILLER_128_1261
*5000 FILLER_128_1273
*5001 FILLER_128_133
*5002 FILLER_128_139
*5003 FILLER_128_141
*5004 FILLER_128_15
*5005 FILLER_128_153
*5006 FILLER_128_165
*5007 FILLER_128_177
*5008 FILLER_128_189
*5009 FILLER_128_195
*5010 FILLER_128_197
*5011 FILLER_128_209
*5012 FILLER_128_221
*5013 FILLER_128_233
*5014 FILLER_128_245
*5015 FILLER_128_251
*5016 FILLER_128_253
*5017 FILLER_128_265
*5018 FILLER_128_27
*5019 FILLER_128_277
*5020 FILLER_128_289
*5021 FILLER_128_29
*5022 FILLER_128_3
*5023 FILLER_128_301
*5024 FILLER_128_307
*5025 FILLER_128_309
*5026 FILLER_128_321
*5027 FILLER_128_333
*5028 FILLER_128_345
*5029 FILLER_128_357
*5030 FILLER_128_363
*5031 FILLER_128_365
*5032 FILLER_128_377
*5033 FILLER_128_389
*5034 FILLER_128_401
*5035 FILLER_128_41
*5036 FILLER_128_413
*5037 FILLER_128_419
*5038 FILLER_128_421
*5039 FILLER_128_433
*5040 FILLER_128_445
*5041 FILLER_128_457
*5042 FILLER_128_469
*5043 FILLER_128_475
*5044 FILLER_128_477
*5045 FILLER_128_489
*5046 FILLER_128_501
*5047 FILLER_128_513
*5048 FILLER_128_525
*5049 FILLER_128_53
*5050 FILLER_128_531
*5051 FILLER_128_533
*5052 FILLER_128_545
*5053 FILLER_128_557
*5054 FILLER_128_569
*5055 FILLER_128_581
*5056 FILLER_128_587
*5057 FILLER_128_589
*5058 FILLER_128_601
*5059 FILLER_128_613
*5060 FILLER_128_625
*5061 FILLER_128_637
*5062 FILLER_128_643
*5063 FILLER_128_645
*5064 FILLER_128_65
*5065 FILLER_128_657
*5066 FILLER_128_669
*5067 FILLER_128_681
*5068 FILLER_128_693
*5069 FILLER_128_699
*5070 FILLER_128_701
*5071 FILLER_128_713
*5072 FILLER_128_725
*5073 FILLER_128_737
*5074 FILLER_128_749
*5075 FILLER_128_755
*5076 FILLER_128_757
*5077 FILLER_128_769
*5078 FILLER_128_77
*5079 FILLER_128_781
*5080 FILLER_128_793
*5081 FILLER_128_805
*5082 FILLER_128_811
*5083 FILLER_128_813
*5084 FILLER_128_825
*5085 FILLER_128_83
*5086 FILLER_128_837
*5087 FILLER_128_849
*5088 FILLER_128_85
*5089 FILLER_128_861
*5090 FILLER_128_867
*5091 FILLER_128_869
*5092 FILLER_128_881
*5093 FILLER_128_893
*5094 FILLER_128_905
*5095 FILLER_128_917
*5096 FILLER_128_923
*5097 FILLER_128_925
*5098 FILLER_128_937
*5099 FILLER_128_949
*5100 FILLER_128_961
*5101 FILLER_128_97
*5102 FILLER_128_973
*5103 FILLER_128_979
*5104 FILLER_128_981
*5105 FILLER_128_993
*5106 FILLER_129_1001
*5107 FILLER_129_1007
*5108 FILLER_129_1009
*5109 FILLER_129_1021
*5110 FILLER_129_1033
*5111 FILLER_129_1045
*5112 FILLER_129_105
*5113 FILLER_129_1057
*5114 FILLER_129_1063
*5115 FILLER_129_1065
*5116 FILLER_129_1077
*5117 FILLER_129_1089
*5118 FILLER_129_1101
*5119 FILLER_129_111
*5120 FILLER_129_1113
*5121 FILLER_129_1119
*5122 FILLER_129_1121
*5123 FILLER_129_113
*5124 FILLER_129_1133
*5125 FILLER_129_1145
*5126 FILLER_129_1157
*5127 FILLER_129_1169
*5128 FILLER_129_1175
*5129 FILLER_129_1177
*5130 FILLER_129_1189
*5131 FILLER_129_1201
*5132 FILLER_129_1213
*5133 FILLER_129_1225
*5134 FILLER_129_1231
*5135 FILLER_129_1233
*5136 FILLER_129_1245
*5137 FILLER_129_125
*5138 FILLER_129_1257
*5139 FILLER_129_1269
*5140 FILLER_129_1276
*5141 FILLER_129_137
*5142 FILLER_129_149
*5143 FILLER_129_161
*5144 FILLER_129_167
*5145 FILLER_129_169
*5146 FILLER_129_181
*5147 FILLER_129_19
*5148 FILLER_129_193
*5149 FILLER_129_205
*5150 FILLER_129_217
*5151 FILLER_129_223
*5152 FILLER_129_225
*5153 FILLER_129_237
*5154 FILLER_129_249
*5155 FILLER_129_261
*5156 FILLER_129_273
*5157 FILLER_129_279
*5158 FILLER_129_281
*5159 FILLER_129_293
*5160 FILLER_129_3
*5161 FILLER_129_305
*5162 FILLER_129_31
*5163 FILLER_129_317
*5164 FILLER_129_329
*5165 FILLER_129_335
*5166 FILLER_129_337
*5167 FILLER_129_349
*5168 FILLER_129_361
*5169 FILLER_129_373
*5170 FILLER_129_385
*5171 FILLER_129_391
*5172 FILLER_129_393
*5173 FILLER_129_405
*5174 FILLER_129_417
*5175 FILLER_129_429
*5176 FILLER_129_43
*5177 FILLER_129_441
*5178 FILLER_129_447
*5179 FILLER_129_449
*5180 FILLER_129_461
*5181 FILLER_129_473
*5182 FILLER_129_485
*5183 FILLER_129_497
*5184 FILLER_129_503
*5185 FILLER_129_505
*5186 FILLER_129_517
*5187 FILLER_129_529
*5188 FILLER_129_541
*5189 FILLER_129_55
*5190 FILLER_129_553
*5191 FILLER_129_559
*5192 FILLER_129_561
*5193 FILLER_129_57
*5194 FILLER_129_573
*5195 FILLER_129_585
*5196 FILLER_129_597
*5197 FILLER_129_609
*5198 FILLER_129_615
*5199 FILLER_129_617
*5200 FILLER_129_629
*5201 FILLER_129_641
*5202 FILLER_129_653
*5203 FILLER_129_665
*5204 FILLER_129_671
*5205 FILLER_129_673
*5206 FILLER_129_685
*5207 FILLER_129_69
*5208 FILLER_129_697
*5209 FILLER_129_7
*5210 FILLER_129_709
*5211 FILLER_129_721
*5212 FILLER_129_727
*5213 FILLER_129_729
*5214 FILLER_129_741
*5215 FILLER_129_753
*5216 FILLER_129_765
*5217 FILLER_129_777
*5218 FILLER_129_783
*5219 FILLER_129_785
*5220 FILLER_129_797
*5221 FILLER_129_809
*5222 FILLER_129_81
*5223 FILLER_129_821
*5224 FILLER_129_833
*5225 FILLER_129_839
*5226 FILLER_129_841
*5227 FILLER_129_853
*5228 FILLER_129_865
*5229 FILLER_129_877
*5230 FILLER_129_889
*5231 FILLER_129_895
*5232 FILLER_129_897
*5233 FILLER_129_909
*5234 FILLER_129_921
*5235 FILLER_129_93
*5236 FILLER_129_933
*5237 FILLER_129_945
*5238 FILLER_129_951
*5239 FILLER_129_953
*5240 FILLER_129_965
*5241 FILLER_129_977
*5242 FILLER_129_989
*5243 FILLER_12_1005
*5244 FILLER_12_1017
*5245 FILLER_12_1029
*5246 FILLER_12_1035
*5247 FILLER_12_1037
*5248 FILLER_12_1049
*5249 FILLER_12_1061
*5250 FILLER_12_1073
*5251 FILLER_12_1085
*5252 FILLER_12_109
*5253 FILLER_12_1091
*5254 FILLER_12_1093
*5255 FILLER_12_1105
*5256 FILLER_12_1117
*5257 FILLER_12_1129
*5258 FILLER_12_1141
*5259 FILLER_12_1147
*5260 FILLER_12_1149
*5261 FILLER_12_1161
*5262 FILLER_12_1173
*5263 FILLER_12_1185
*5264 FILLER_12_1197
*5265 FILLER_12_1203
*5266 FILLER_12_1205
*5267 FILLER_12_121
*5268 FILLER_12_1217
*5269 FILLER_12_1229
*5270 FILLER_12_1241
*5271 FILLER_12_1253
*5272 FILLER_12_1259
*5273 FILLER_12_1261
*5274 FILLER_12_1273
*5275 FILLER_12_133
*5276 FILLER_12_139
*5277 FILLER_12_141
*5278 FILLER_12_15
*5279 FILLER_12_153
*5280 FILLER_12_165
*5281 FILLER_12_177
*5282 FILLER_12_189
*5283 FILLER_12_195
*5284 FILLER_12_197
*5285 FILLER_12_209
*5286 FILLER_12_221
*5287 FILLER_12_233
*5288 FILLER_12_245
*5289 FILLER_12_251
*5290 FILLER_12_253
*5291 FILLER_12_265
*5292 FILLER_12_27
*5293 FILLER_12_277
*5294 FILLER_12_289
*5295 FILLER_12_29
*5296 FILLER_12_3
*5297 FILLER_12_301
*5298 FILLER_12_307
*5299 FILLER_12_309
*5300 FILLER_12_321
*5301 FILLER_12_333
*5302 FILLER_12_345
*5303 FILLER_12_357
*5304 FILLER_12_363
*5305 FILLER_12_365
*5306 FILLER_12_377
*5307 FILLER_12_389
*5308 FILLER_12_401
*5309 FILLER_12_41
*5310 FILLER_12_413
*5311 FILLER_12_419
*5312 FILLER_12_421
*5313 FILLER_12_433
*5314 FILLER_12_445
*5315 FILLER_12_457
*5316 FILLER_12_469
*5317 FILLER_12_475
*5318 FILLER_12_477
*5319 FILLER_12_489
*5320 FILLER_12_501
*5321 FILLER_12_513
*5322 FILLER_12_525
*5323 FILLER_12_53
*5324 FILLER_12_531
*5325 FILLER_12_533
*5326 FILLER_12_545
*5327 FILLER_12_557
*5328 FILLER_12_569
*5329 FILLER_12_581
*5330 FILLER_12_587
*5331 FILLER_12_589
*5332 FILLER_12_601
*5333 FILLER_12_613
*5334 FILLER_12_625
*5335 FILLER_12_637
*5336 FILLER_12_643
*5337 FILLER_12_645
*5338 FILLER_12_65
*5339 FILLER_12_657
*5340 FILLER_12_669
*5341 FILLER_12_681
*5342 FILLER_12_693
*5343 FILLER_12_699
*5344 FILLER_12_701
*5345 FILLER_12_713
*5346 FILLER_12_725
*5347 FILLER_12_737
*5348 FILLER_12_749
*5349 FILLER_12_755
*5350 FILLER_12_757
*5351 FILLER_12_769
*5352 FILLER_12_77
*5353 FILLER_12_781
*5354 FILLER_12_793
*5355 FILLER_12_805
*5356 FILLER_12_811
*5357 FILLER_12_813
*5358 FILLER_12_825
*5359 FILLER_12_83
*5360 FILLER_12_837
*5361 FILLER_12_849
*5362 FILLER_12_85
*5363 FILLER_12_861
*5364 FILLER_12_867
*5365 FILLER_12_869
*5366 FILLER_12_881
*5367 FILLER_12_893
*5368 FILLER_12_905
*5369 FILLER_12_917
*5370 FILLER_12_923
*5371 FILLER_12_925
*5372 FILLER_12_937
*5373 FILLER_12_949
*5374 FILLER_12_961
*5375 FILLER_12_97
*5376 FILLER_12_973
*5377 FILLER_12_979
*5378 FILLER_12_981
*5379 FILLER_12_993
*5380 FILLER_130_1005
*5381 FILLER_130_1017
*5382 FILLER_130_1029
*5383 FILLER_130_1035
*5384 FILLER_130_1037
*5385 FILLER_130_1049
*5386 FILLER_130_1061
*5387 FILLER_130_1073
*5388 FILLER_130_1085
*5389 FILLER_130_109
*5390 FILLER_130_1091
*5391 FILLER_130_1093
*5392 FILLER_130_1105
*5393 FILLER_130_1117
*5394 FILLER_130_1129
*5395 FILLER_130_1141
*5396 FILLER_130_1147
*5397 FILLER_130_1149
*5398 FILLER_130_1161
*5399 FILLER_130_1173
*5400 FILLER_130_1185
*5401 FILLER_130_1197
*5402 FILLER_130_1203
*5403 FILLER_130_1205
*5404 FILLER_130_121
*5405 FILLER_130_1217
*5406 FILLER_130_1229
*5407 FILLER_130_1241
*5408 FILLER_130_1253
*5409 FILLER_130_1259
*5410 FILLER_130_1261
*5411 FILLER_130_1276
*5412 FILLER_130_133
*5413 FILLER_130_139
*5414 FILLER_130_141
*5415 FILLER_130_153
*5416 FILLER_130_165
*5417 FILLER_130_177
*5418 FILLER_130_189
*5419 FILLER_130_19
*5420 FILLER_130_195
*5421 FILLER_130_197
*5422 FILLER_130_209
*5423 FILLER_130_221
*5424 FILLER_130_233
*5425 FILLER_130_245
*5426 FILLER_130_251
*5427 FILLER_130_253
*5428 FILLER_130_265
*5429 FILLER_130_27
*5430 FILLER_130_277
*5431 FILLER_130_289
*5432 FILLER_130_29
*5433 FILLER_130_3
*5434 FILLER_130_301
*5435 FILLER_130_307
*5436 FILLER_130_309
*5437 FILLER_130_321
*5438 FILLER_130_333
*5439 FILLER_130_345
*5440 FILLER_130_357
*5441 FILLER_130_363
*5442 FILLER_130_365
*5443 FILLER_130_377
*5444 FILLER_130_389
*5445 FILLER_130_401
*5446 FILLER_130_41
*5447 FILLER_130_413
*5448 FILLER_130_419
*5449 FILLER_130_421
*5450 FILLER_130_433
*5451 FILLER_130_445
*5452 FILLER_130_457
*5453 FILLER_130_469
*5454 FILLER_130_475
*5455 FILLER_130_477
*5456 FILLER_130_489
*5457 FILLER_130_501
*5458 FILLER_130_513
*5459 FILLER_130_525
*5460 FILLER_130_53
*5461 FILLER_130_531
*5462 FILLER_130_533
*5463 FILLER_130_545
*5464 FILLER_130_557
*5465 FILLER_130_569
*5466 FILLER_130_581
*5467 FILLER_130_587
*5468 FILLER_130_589
*5469 FILLER_130_601
*5470 FILLER_130_613
*5471 FILLER_130_625
*5472 FILLER_130_637
*5473 FILLER_130_643
*5474 FILLER_130_645
*5475 FILLER_130_65
*5476 FILLER_130_657
*5477 FILLER_130_669
*5478 FILLER_130_681
*5479 FILLER_130_693
*5480 FILLER_130_699
*5481 FILLER_130_7
*5482 FILLER_130_701
*5483 FILLER_130_713
*5484 FILLER_130_725
*5485 FILLER_130_737
*5486 FILLER_130_749
*5487 FILLER_130_755
*5488 FILLER_130_757
*5489 FILLER_130_769
*5490 FILLER_130_77
*5491 FILLER_130_781
*5492 FILLER_130_793
*5493 FILLER_130_805
*5494 FILLER_130_811
*5495 FILLER_130_813
*5496 FILLER_130_825
*5497 FILLER_130_83
*5498 FILLER_130_837
*5499 FILLER_130_849
*5500 FILLER_130_85
*5501 FILLER_130_861
*5502 FILLER_130_867
*5503 FILLER_130_869
*5504 FILLER_130_881
*5505 FILLER_130_893
*5506 FILLER_130_905
*5507 FILLER_130_917
*5508 FILLER_130_923
*5509 FILLER_130_925
*5510 FILLER_130_937
*5511 FILLER_130_949
*5512 FILLER_130_961
*5513 FILLER_130_97
*5514 FILLER_130_973
*5515 FILLER_130_979
*5516 FILLER_130_981
*5517 FILLER_130_993
*5518 FILLER_131_1001
*5519 FILLER_131_1007
*5520 FILLER_131_1009
*5521 FILLER_131_1021
*5522 FILLER_131_1033
*5523 FILLER_131_1045
*5524 FILLER_131_105
*5525 FILLER_131_1057
*5526 FILLER_131_1063
*5527 FILLER_131_1065
*5528 FILLER_131_1077
*5529 FILLER_131_1089
*5530 FILLER_131_1101
*5531 FILLER_131_111
*5532 FILLER_131_1113
*5533 FILLER_131_1119
*5534 FILLER_131_1121
*5535 FILLER_131_113
*5536 FILLER_131_1133
*5537 FILLER_131_1145
*5538 FILLER_131_1157
*5539 FILLER_131_1169
*5540 FILLER_131_1175
*5541 FILLER_131_1177
*5542 FILLER_131_1189
*5543 FILLER_131_1201
*5544 FILLER_131_1213
*5545 FILLER_131_1225
*5546 FILLER_131_1231
*5547 FILLER_131_1233
*5548 FILLER_131_1245
*5549 FILLER_131_125
*5550 FILLER_131_1257
*5551 FILLER_131_1269
*5552 FILLER_131_1276
*5553 FILLER_131_137
*5554 FILLER_131_149
*5555 FILLER_131_161
*5556 FILLER_131_167
*5557 FILLER_131_169
*5558 FILLER_131_181
*5559 FILLER_131_19
*5560 FILLER_131_193
*5561 FILLER_131_205
*5562 FILLER_131_217
*5563 FILLER_131_223
*5564 FILLER_131_225
*5565 FILLER_131_237
*5566 FILLER_131_249
*5567 FILLER_131_261
*5568 FILLER_131_273
*5569 FILLER_131_279
*5570 FILLER_131_281
*5571 FILLER_131_293
*5572 FILLER_131_3
*5573 FILLER_131_305
*5574 FILLER_131_31
*5575 FILLER_131_317
*5576 FILLER_131_329
*5577 FILLER_131_335
*5578 FILLER_131_337
*5579 FILLER_131_349
*5580 FILLER_131_361
*5581 FILLER_131_373
*5582 FILLER_131_385
*5583 FILLER_131_391
*5584 FILLER_131_393
*5585 FILLER_131_405
*5586 FILLER_131_417
*5587 FILLER_131_429
*5588 FILLER_131_43
*5589 FILLER_131_441
*5590 FILLER_131_447
*5591 FILLER_131_449
*5592 FILLER_131_461
*5593 FILLER_131_473
*5594 FILLER_131_485
*5595 FILLER_131_497
*5596 FILLER_131_503
*5597 FILLER_131_505
*5598 FILLER_131_517
*5599 FILLER_131_529
*5600 FILLER_131_541
*5601 FILLER_131_55
*5602 FILLER_131_553
*5603 FILLER_131_559
*5604 FILLER_131_561
*5605 FILLER_131_57
*5606 FILLER_131_573
*5607 FILLER_131_585
*5608 FILLER_131_597
*5609 FILLER_131_609
*5610 FILLER_131_615
*5611 FILLER_131_617
*5612 FILLER_131_629
*5613 FILLER_131_641
*5614 FILLER_131_653
*5615 FILLER_131_665
*5616 FILLER_131_671
*5617 FILLER_131_673
*5618 FILLER_131_685
*5619 FILLER_131_69
*5620 FILLER_131_697
*5621 FILLER_131_7
*5622 FILLER_131_709
*5623 FILLER_131_721
*5624 FILLER_131_727
*5625 FILLER_131_729
*5626 FILLER_131_741
*5627 FILLER_131_753
*5628 FILLER_131_765
*5629 FILLER_131_777
*5630 FILLER_131_783
*5631 FILLER_131_785
*5632 FILLER_131_797
*5633 FILLER_131_809
*5634 FILLER_131_81
*5635 FILLER_131_821
*5636 FILLER_131_833
*5637 FILLER_131_839
*5638 FILLER_131_841
*5639 FILLER_131_853
*5640 FILLER_131_865
*5641 FILLER_131_877
*5642 FILLER_131_889
*5643 FILLER_131_895
*5644 FILLER_131_897
*5645 FILLER_131_909
*5646 FILLER_131_921
*5647 FILLER_131_93
*5648 FILLER_131_933
*5649 FILLER_131_945
*5650 FILLER_131_951
*5651 FILLER_131_953
*5652 FILLER_131_965
*5653 FILLER_131_977
*5654 FILLER_131_989
*5655 FILLER_132_1005
*5656 FILLER_132_1017
*5657 FILLER_132_1029
*5658 FILLER_132_1035
*5659 FILLER_132_1037
*5660 FILLER_132_1049
*5661 FILLER_132_1061
*5662 FILLER_132_1073
*5663 FILLER_132_1085
*5664 FILLER_132_109
*5665 FILLER_132_1091
*5666 FILLER_132_1093
*5667 FILLER_132_1105
*5668 FILLER_132_1117
*5669 FILLER_132_1129
*5670 FILLER_132_1141
*5671 FILLER_132_1147
*5672 FILLER_132_1149
*5673 FILLER_132_1161
*5674 FILLER_132_1173
*5675 FILLER_132_1185
*5676 FILLER_132_1197
*5677 FILLER_132_1203
*5678 FILLER_132_1205
*5679 FILLER_132_121
*5680 FILLER_132_1217
*5681 FILLER_132_1229
*5682 FILLER_132_1241
*5683 FILLER_132_1253
*5684 FILLER_132_1259
*5685 FILLER_132_1261
*5686 FILLER_132_1276
*5687 FILLER_132_133
*5688 FILLER_132_139
*5689 FILLER_132_141
*5690 FILLER_132_153
*5691 FILLER_132_165
*5692 FILLER_132_177
*5693 FILLER_132_189
*5694 FILLER_132_19
*5695 FILLER_132_195
*5696 FILLER_132_197
*5697 FILLER_132_209
*5698 FILLER_132_221
*5699 FILLER_132_233
*5700 FILLER_132_245
*5701 FILLER_132_251
*5702 FILLER_132_253
*5703 FILLER_132_265
*5704 FILLER_132_27
*5705 FILLER_132_277
*5706 FILLER_132_289
*5707 FILLER_132_29
*5708 FILLER_132_3
*5709 FILLER_132_301
*5710 FILLER_132_307
*5711 FILLER_132_309
*5712 FILLER_132_321
*5713 FILLER_132_333
*5714 FILLER_132_345
*5715 FILLER_132_357
*5716 FILLER_132_363
*5717 FILLER_132_365
*5718 FILLER_132_377
*5719 FILLER_132_389
*5720 FILLER_132_401
*5721 FILLER_132_41
*5722 FILLER_132_413
*5723 FILLER_132_419
*5724 FILLER_132_421
*5725 FILLER_132_433
*5726 FILLER_132_445
*5727 FILLER_132_457
*5728 FILLER_132_469
*5729 FILLER_132_475
*5730 FILLER_132_477
*5731 FILLER_132_489
*5732 FILLER_132_501
*5733 FILLER_132_513
*5734 FILLER_132_525
*5735 FILLER_132_53
*5736 FILLER_132_531
*5737 FILLER_132_533
*5738 FILLER_132_545
*5739 FILLER_132_557
*5740 FILLER_132_569
*5741 FILLER_132_581
*5742 FILLER_132_587
*5743 FILLER_132_589
*5744 FILLER_132_601
*5745 FILLER_132_613
*5746 FILLER_132_625
*5747 FILLER_132_637
*5748 FILLER_132_643
*5749 FILLER_132_645
*5750 FILLER_132_65
*5751 FILLER_132_657
*5752 FILLER_132_669
*5753 FILLER_132_681
*5754 FILLER_132_693
*5755 FILLER_132_699
*5756 FILLER_132_7
*5757 FILLER_132_701
*5758 FILLER_132_713
*5759 FILLER_132_725
*5760 FILLER_132_737
*5761 FILLER_132_749
*5762 FILLER_132_755
*5763 FILLER_132_757
*5764 FILLER_132_769
*5765 FILLER_132_77
*5766 FILLER_132_781
*5767 FILLER_132_793
*5768 FILLER_132_805
*5769 FILLER_132_811
*5770 FILLER_132_813
*5771 FILLER_132_825
*5772 FILLER_132_83
*5773 FILLER_132_837
*5774 FILLER_132_849
*5775 FILLER_132_85
*5776 FILLER_132_861
*5777 FILLER_132_867
*5778 FILLER_132_869
*5779 FILLER_132_881
*5780 FILLER_132_893
*5781 FILLER_132_905
*5782 FILLER_132_917
*5783 FILLER_132_923
*5784 FILLER_132_925
*5785 FILLER_132_937
*5786 FILLER_132_949
*5787 FILLER_132_961
*5788 FILLER_132_97
*5789 FILLER_132_973
*5790 FILLER_132_979
*5791 FILLER_132_981
*5792 FILLER_132_993
*5793 FILLER_133_1001
*5794 FILLER_133_1007
*5795 FILLER_133_1009
*5796 FILLER_133_1021
*5797 FILLER_133_1033
*5798 FILLER_133_1045
*5799 FILLER_133_105
*5800 FILLER_133_1057
*5801 FILLER_133_1063
*5802 FILLER_133_1065
*5803 FILLER_133_1077
*5804 FILLER_133_1089
*5805 FILLER_133_1101
*5806 FILLER_133_111
*5807 FILLER_133_1113
*5808 FILLER_133_1119
*5809 FILLER_133_1121
*5810 FILLER_133_113
*5811 FILLER_133_1133
*5812 FILLER_133_1145
*5813 FILLER_133_1157
*5814 FILLER_133_1169
*5815 FILLER_133_1175
*5816 FILLER_133_1177
*5817 FILLER_133_1189
*5818 FILLER_133_1201
*5819 FILLER_133_1213
*5820 FILLER_133_1225
*5821 FILLER_133_1231
*5822 FILLER_133_1233
*5823 FILLER_133_1245
*5824 FILLER_133_125
*5825 FILLER_133_1257
*5826 FILLER_133_1269
*5827 FILLER_133_137
*5828 FILLER_133_149
*5829 FILLER_133_15
*5830 FILLER_133_161
*5831 FILLER_133_167
*5832 FILLER_133_169
*5833 FILLER_133_181
*5834 FILLER_133_193
*5835 FILLER_133_205
*5836 FILLER_133_217
*5837 FILLER_133_223
*5838 FILLER_133_225
*5839 FILLER_133_237
*5840 FILLER_133_249
*5841 FILLER_133_261
*5842 FILLER_133_27
*5843 FILLER_133_273
*5844 FILLER_133_279
*5845 FILLER_133_281
*5846 FILLER_133_293
*5847 FILLER_133_3
*5848 FILLER_133_305
*5849 FILLER_133_317
*5850 FILLER_133_329
*5851 FILLER_133_335
*5852 FILLER_133_337
*5853 FILLER_133_349
*5854 FILLER_133_361
*5855 FILLER_133_373
*5856 FILLER_133_385
*5857 FILLER_133_39
*5858 FILLER_133_391
*5859 FILLER_133_393
*5860 FILLER_133_405
*5861 FILLER_133_417
*5862 FILLER_133_429
*5863 FILLER_133_441
*5864 FILLER_133_447
*5865 FILLER_133_449
*5866 FILLER_133_461
*5867 FILLER_133_473
*5868 FILLER_133_485
*5869 FILLER_133_497
*5870 FILLER_133_503
*5871 FILLER_133_505
*5872 FILLER_133_51
*5873 FILLER_133_517
*5874 FILLER_133_529
*5875 FILLER_133_541
*5876 FILLER_133_55
*5877 FILLER_133_553
*5878 FILLER_133_559
*5879 FILLER_133_561
*5880 FILLER_133_57
*5881 FILLER_133_573
*5882 FILLER_133_585
*5883 FILLER_133_597
*5884 FILLER_133_609
*5885 FILLER_133_615
*5886 FILLER_133_617
*5887 FILLER_133_629
*5888 FILLER_133_641
*5889 FILLER_133_653
*5890 FILLER_133_665
*5891 FILLER_133_671
*5892 FILLER_133_673
*5893 FILLER_133_685
*5894 FILLER_133_69
*5895 FILLER_133_697
*5896 FILLER_133_709
*5897 FILLER_133_721
*5898 FILLER_133_727
*5899 FILLER_133_729
*5900 FILLER_133_741
*5901 FILLER_133_753
*5902 FILLER_133_765
*5903 FILLER_133_777
*5904 FILLER_133_783
*5905 FILLER_133_785
*5906 FILLER_133_797
*5907 FILLER_133_809
*5908 FILLER_133_81
*5909 FILLER_133_821
*5910 FILLER_133_833
*5911 FILLER_133_839
*5912 FILLER_133_841
*5913 FILLER_133_853
*5914 FILLER_133_865
*5915 FILLER_133_877
*5916 FILLER_133_889
*5917 FILLER_133_895
*5918 FILLER_133_897
*5919 FILLER_133_909
*5920 FILLER_133_921
*5921 FILLER_133_93
*5922 FILLER_133_933
*5923 FILLER_133_945
*5924 FILLER_133_951
*5925 FILLER_133_953
*5926 FILLER_133_965
*5927 FILLER_133_977
*5928 FILLER_133_989
*5929 FILLER_134_1005
*5930 FILLER_134_1017
*5931 FILLER_134_1029
*5932 FILLER_134_1035
*5933 FILLER_134_1037
*5934 FILLER_134_1049
*5935 FILLER_134_1061
*5936 FILLER_134_1073
*5937 FILLER_134_1085
*5938 FILLER_134_109
*5939 FILLER_134_1091
*5940 FILLER_134_1093
*5941 FILLER_134_1105
*5942 FILLER_134_1117
*5943 FILLER_134_1129
*5944 FILLER_134_1141
*5945 FILLER_134_1147
*5946 FILLER_134_1149
*5947 FILLER_134_1161
*5948 FILLER_134_1173
*5949 FILLER_134_1185
*5950 FILLER_134_1197
*5951 FILLER_134_1203
*5952 FILLER_134_1205
*5953 FILLER_134_121
*5954 FILLER_134_1217
*5955 FILLER_134_1229
*5956 FILLER_134_1241
*5957 FILLER_134_1253
*5958 FILLER_134_1259
*5959 FILLER_134_1261
*5960 FILLER_134_1276
*5961 FILLER_134_133
*5962 FILLER_134_139
*5963 FILLER_134_141
*5964 FILLER_134_153
*5965 FILLER_134_165
*5966 FILLER_134_177
*5967 FILLER_134_189
*5968 FILLER_134_19
*5969 FILLER_134_195
*5970 FILLER_134_197
*5971 FILLER_134_209
*5972 FILLER_134_221
*5973 FILLER_134_233
*5974 FILLER_134_245
*5975 FILLER_134_251
*5976 FILLER_134_253
*5977 FILLER_134_265
*5978 FILLER_134_27
*5979 FILLER_134_277
*5980 FILLER_134_289
*5981 FILLER_134_29
*5982 FILLER_134_3
*5983 FILLER_134_301
*5984 FILLER_134_307
*5985 FILLER_134_309
*5986 FILLER_134_321
*5987 FILLER_134_333
*5988 FILLER_134_345
*5989 FILLER_134_357
*5990 FILLER_134_363
*5991 FILLER_134_365
*5992 FILLER_134_377
*5993 FILLER_134_389
*5994 FILLER_134_401
*5995 FILLER_134_41
*5996 FILLER_134_413
*5997 FILLER_134_419
*5998 FILLER_134_421
*5999 FILLER_134_433
*6000 FILLER_134_445
*6001 FILLER_134_457
*6002 FILLER_134_469
*6003 FILLER_134_475
*6004 FILLER_134_477
*6005 FILLER_134_489
*6006 FILLER_134_501
*6007 FILLER_134_513
*6008 FILLER_134_525
*6009 FILLER_134_53
*6010 FILLER_134_531
*6011 FILLER_134_533
*6012 FILLER_134_545
*6013 FILLER_134_557
*6014 FILLER_134_569
*6015 FILLER_134_581
*6016 FILLER_134_587
*6017 FILLER_134_589
*6018 FILLER_134_601
*6019 FILLER_134_613
*6020 FILLER_134_625
*6021 FILLER_134_637
*6022 FILLER_134_643
*6023 FILLER_134_645
*6024 FILLER_134_65
*6025 FILLER_134_657
*6026 FILLER_134_669
*6027 FILLER_134_681
*6028 FILLER_134_693
*6029 FILLER_134_699
*6030 FILLER_134_7
*6031 FILLER_134_701
*6032 FILLER_134_713
*6033 FILLER_134_725
*6034 FILLER_134_737
*6035 FILLER_134_749
*6036 FILLER_134_755
*6037 FILLER_134_757
*6038 FILLER_134_769
*6039 FILLER_134_77
*6040 FILLER_134_781
*6041 FILLER_134_793
*6042 FILLER_134_805
*6043 FILLER_134_811
*6044 FILLER_134_813
*6045 FILLER_134_825
*6046 FILLER_134_83
*6047 FILLER_134_837
*6048 FILLER_134_849
*6049 FILLER_134_85
*6050 FILLER_134_861
*6051 FILLER_134_867
*6052 FILLER_134_869
*6053 FILLER_134_881
*6054 FILLER_134_893
*6055 FILLER_134_905
*6056 FILLER_134_917
*6057 FILLER_134_923
*6058 FILLER_134_925
*6059 FILLER_134_937
*6060 FILLER_134_949
*6061 FILLER_134_961
*6062 FILLER_134_97
*6063 FILLER_134_973
*6064 FILLER_134_979
*6065 FILLER_134_981
*6066 FILLER_134_993
*6067 FILLER_135_1001
*6068 FILLER_135_1007
*6069 FILLER_135_1009
*6070 FILLER_135_1021
*6071 FILLER_135_1033
*6072 FILLER_135_1045
*6073 FILLER_135_105
*6074 FILLER_135_1057
*6075 FILLER_135_1063
*6076 FILLER_135_1065
*6077 FILLER_135_1077
*6078 FILLER_135_1089
*6079 FILLER_135_1101
*6080 FILLER_135_111
*6081 FILLER_135_1113
*6082 FILLER_135_1119
*6083 FILLER_135_1121
*6084 FILLER_135_113
*6085 FILLER_135_1133
*6086 FILLER_135_1145
*6087 FILLER_135_1157
*6088 FILLER_135_1169
*6089 FILLER_135_1175
*6090 FILLER_135_1177
*6091 FILLER_135_1189
*6092 FILLER_135_1201
*6093 FILLER_135_1213
*6094 FILLER_135_1225
*6095 FILLER_135_1231
*6096 FILLER_135_1233
*6097 FILLER_135_1245
*6098 FILLER_135_125
*6099 FILLER_135_1257
*6100 FILLER_135_1269
*6101 FILLER_135_1276
*6102 FILLER_135_137
*6103 FILLER_135_149
*6104 FILLER_135_161
*6105 FILLER_135_167
*6106 FILLER_135_169
*6107 FILLER_135_181
*6108 FILLER_135_19
*6109 FILLER_135_193
*6110 FILLER_135_205
*6111 FILLER_135_217
*6112 FILLER_135_223
*6113 FILLER_135_225
*6114 FILLER_135_237
*6115 FILLER_135_249
*6116 FILLER_135_261
*6117 FILLER_135_273
*6118 FILLER_135_279
*6119 FILLER_135_281
*6120 FILLER_135_293
*6121 FILLER_135_3
*6122 FILLER_135_305
*6123 FILLER_135_31
*6124 FILLER_135_317
*6125 FILLER_135_329
*6126 FILLER_135_335
*6127 FILLER_135_337
*6128 FILLER_135_349
*6129 FILLER_135_361
*6130 FILLER_135_373
*6131 FILLER_135_385
*6132 FILLER_135_391
*6133 FILLER_135_393
*6134 FILLER_135_405
*6135 FILLER_135_417
*6136 FILLER_135_429
*6137 FILLER_135_43
*6138 FILLER_135_441
*6139 FILLER_135_447
*6140 FILLER_135_449
*6141 FILLER_135_461
*6142 FILLER_135_473
*6143 FILLER_135_485
*6144 FILLER_135_497
*6145 FILLER_135_503
*6146 FILLER_135_505
*6147 FILLER_135_517
*6148 FILLER_135_529
*6149 FILLER_135_541
*6150 FILLER_135_55
*6151 FILLER_135_553
*6152 FILLER_135_559
*6153 FILLER_135_561
*6154 FILLER_135_57
*6155 FILLER_135_573
*6156 FILLER_135_585
*6157 FILLER_135_597
*6158 FILLER_135_609
*6159 FILLER_135_615
*6160 FILLER_135_617
*6161 FILLER_135_629
*6162 FILLER_135_641
*6163 FILLER_135_653
*6164 FILLER_135_665
*6165 FILLER_135_671
*6166 FILLER_135_673
*6167 FILLER_135_685
*6168 FILLER_135_69
*6169 FILLER_135_697
*6170 FILLER_135_7
*6171 FILLER_135_709
*6172 FILLER_135_721
*6173 FILLER_135_727
*6174 FILLER_135_729
*6175 FILLER_135_741
*6176 FILLER_135_753
*6177 FILLER_135_765
*6178 FILLER_135_777
*6179 FILLER_135_783
*6180 FILLER_135_785
*6181 FILLER_135_797
*6182 FILLER_135_809
*6183 FILLER_135_81
*6184 FILLER_135_821
*6185 FILLER_135_833
*6186 FILLER_135_839
*6187 FILLER_135_841
*6188 FILLER_135_853
*6189 FILLER_135_865
*6190 FILLER_135_877
*6191 FILLER_135_889
*6192 FILLER_135_895
*6193 FILLER_135_897
*6194 FILLER_135_909
*6195 FILLER_135_921
*6196 FILLER_135_93
*6197 FILLER_135_933
*6198 FILLER_135_945
*6199 FILLER_135_951
*6200 FILLER_135_953
*6201 FILLER_135_965
*6202 FILLER_135_977
*6203 FILLER_135_989
*6204 FILLER_136_1005
*6205 FILLER_136_1017
*6206 FILLER_136_1029
*6207 FILLER_136_1035
*6208 FILLER_136_1037
*6209 FILLER_136_1049
*6210 FILLER_136_1061
*6211 FILLER_136_1073
*6212 FILLER_136_1085
*6213 FILLER_136_109
*6214 FILLER_136_1091
*6215 FILLER_136_1093
*6216 FILLER_136_1105
*6217 FILLER_136_1117
*6218 FILLER_136_1129
*6219 FILLER_136_1141
*6220 FILLER_136_1147
*6221 FILLER_136_1149
*6222 FILLER_136_1161
*6223 FILLER_136_1173
*6224 FILLER_136_1185
*6225 FILLER_136_1197
*6226 FILLER_136_1203
*6227 FILLER_136_1205
*6228 FILLER_136_121
*6229 FILLER_136_1217
*6230 FILLER_136_1229
*6231 FILLER_136_1241
*6232 FILLER_136_1253
*6233 FILLER_136_1259
*6234 FILLER_136_1261
*6235 FILLER_136_1276
*6236 FILLER_136_133
*6237 FILLER_136_139
*6238 FILLER_136_141
*6239 FILLER_136_153
*6240 FILLER_136_165
*6241 FILLER_136_177
*6242 FILLER_136_189
*6243 FILLER_136_19
*6244 FILLER_136_195
*6245 FILLER_136_197
*6246 FILLER_136_209
*6247 FILLER_136_221
*6248 FILLER_136_233
*6249 FILLER_136_245
*6250 FILLER_136_251
*6251 FILLER_136_253
*6252 FILLER_136_265
*6253 FILLER_136_27
*6254 FILLER_136_277
*6255 FILLER_136_289
*6256 FILLER_136_29
*6257 FILLER_136_3
*6258 FILLER_136_301
*6259 FILLER_136_307
*6260 FILLER_136_309
*6261 FILLER_136_321
*6262 FILLER_136_333
*6263 FILLER_136_345
*6264 FILLER_136_357
*6265 FILLER_136_363
*6266 FILLER_136_365
*6267 FILLER_136_377
*6268 FILLER_136_389
*6269 FILLER_136_401
*6270 FILLER_136_41
*6271 FILLER_136_413
*6272 FILLER_136_419
*6273 FILLER_136_421
*6274 FILLER_136_433
*6275 FILLER_136_445
*6276 FILLER_136_457
*6277 FILLER_136_469
*6278 FILLER_136_475
*6279 FILLER_136_477
*6280 FILLER_136_489
*6281 FILLER_136_501
*6282 FILLER_136_513
*6283 FILLER_136_525
*6284 FILLER_136_53
*6285 FILLER_136_531
*6286 FILLER_136_533
*6287 FILLER_136_545
*6288 FILLER_136_557
*6289 FILLER_136_569
*6290 FILLER_136_581
*6291 FILLER_136_587
*6292 FILLER_136_589
*6293 FILLER_136_601
*6294 FILLER_136_613
*6295 FILLER_136_625
*6296 FILLER_136_637
*6297 FILLER_136_643
*6298 FILLER_136_645
*6299 FILLER_136_65
*6300 FILLER_136_657
*6301 FILLER_136_669
*6302 FILLER_136_681
*6303 FILLER_136_693
*6304 FILLER_136_699
*6305 FILLER_136_7
*6306 FILLER_136_701
*6307 FILLER_136_713
*6308 FILLER_136_725
*6309 FILLER_136_737
*6310 FILLER_136_749
*6311 FILLER_136_755
*6312 FILLER_136_757
*6313 FILLER_136_769
*6314 FILLER_136_77
*6315 FILLER_136_781
*6316 FILLER_136_793
*6317 FILLER_136_805
*6318 FILLER_136_811
*6319 FILLER_136_813
*6320 FILLER_136_825
*6321 FILLER_136_83
*6322 FILLER_136_837
*6323 FILLER_136_849
*6324 FILLER_136_85
*6325 FILLER_136_861
*6326 FILLER_136_867
*6327 FILLER_136_869
*6328 FILLER_136_881
*6329 FILLER_136_893
*6330 FILLER_136_905
*6331 FILLER_136_917
*6332 FILLER_136_923
*6333 FILLER_136_925
*6334 FILLER_136_937
*6335 FILLER_136_949
*6336 FILLER_136_961
*6337 FILLER_136_97
*6338 FILLER_136_973
*6339 FILLER_136_979
*6340 FILLER_136_981
*6341 FILLER_136_993
*6342 FILLER_137_1001
*6343 FILLER_137_1007
*6344 FILLER_137_1009
*6345 FILLER_137_1021
*6346 FILLER_137_1033
*6347 FILLER_137_1045
*6348 FILLER_137_105
*6349 FILLER_137_1057
*6350 FILLER_137_1063
*6351 FILLER_137_1065
*6352 FILLER_137_1077
*6353 FILLER_137_1089
*6354 FILLER_137_1101
*6355 FILLER_137_111
*6356 FILLER_137_1113
*6357 FILLER_137_1119
*6358 FILLER_137_1121
*6359 FILLER_137_113
*6360 FILLER_137_1133
*6361 FILLER_137_1145
*6362 FILLER_137_1157
*6363 FILLER_137_1169
*6364 FILLER_137_1175
*6365 FILLER_137_1177
*6366 FILLER_137_1189
*6367 FILLER_137_1201
*6368 FILLER_137_1213
*6369 FILLER_137_1225
*6370 FILLER_137_1231
*6371 FILLER_137_1233
*6372 FILLER_137_1245
*6373 FILLER_137_125
*6374 FILLER_137_1257
*6375 FILLER_137_1269
*6376 FILLER_137_1276
*6377 FILLER_137_137
*6378 FILLER_137_149
*6379 FILLER_137_161
*6380 FILLER_137_167
*6381 FILLER_137_169
*6382 FILLER_137_181
*6383 FILLER_137_19
*6384 FILLER_137_193
*6385 FILLER_137_205
*6386 FILLER_137_217
*6387 FILLER_137_223
*6388 FILLER_137_225
*6389 FILLER_137_237
*6390 FILLER_137_249
*6391 FILLER_137_261
*6392 FILLER_137_273
*6393 FILLER_137_279
*6394 FILLER_137_281
*6395 FILLER_137_293
*6396 FILLER_137_3
*6397 FILLER_137_305
*6398 FILLER_137_31
*6399 FILLER_137_317
*6400 FILLER_137_329
*6401 FILLER_137_335
*6402 FILLER_137_337
*6403 FILLER_137_349
*6404 FILLER_137_361
*6405 FILLER_137_373
*6406 FILLER_137_385
*6407 FILLER_137_391
*6408 FILLER_137_393
*6409 FILLER_137_405
*6410 FILLER_137_417
*6411 FILLER_137_429
*6412 FILLER_137_43
*6413 FILLER_137_441
*6414 FILLER_137_447
*6415 FILLER_137_449
*6416 FILLER_137_461
*6417 FILLER_137_473
*6418 FILLER_137_485
*6419 FILLER_137_497
*6420 FILLER_137_503
*6421 FILLER_137_505
*6422 FILLER_137_517
*6423 FILLER_137_529
*6424 FILLER_137_541
*6425 FILLER_137_55
*6426 FILLER_137_553
*6427 FILLER_137_559
*6428 FILLER_137_561
*6429 FILLER_137_57
*6430 FILLER_137_573
*6431 FILLER_137_585
*6432 FILLER_137_597
*6433 FILLER_137_609
*6434 FILLER_137_615
*6435 FILLER_137_617
*6436 FILLER_137_629
*6437 FILLER_137_641
*6438 FILLER_137_653
*6439 FILLER_137_665
*6440 FILLER_137_671
*6441 FILLER_137_673
*6442 FILLER_137_685
*6443 FILLER_137_69
*6444 FILLER_137_697
*6445 FILLER_137_7
*6446 FILLER_137_709
*6447 FILLER_137_721
*6448 FILLER_137_727
*6449 FILLER_137_729
*6450 FILLER_137_741
*6451 FILLER_137_753
*6452 FILLER_137_765
*6453 FILLER_137_777
*6454 FILLER_137_783
*6455 FILLER_137_785
*6456 FILLER_137_797
*6457 FILLER_137_809
*6458 FILLER_137_81
*6459 FILLER_137_821
*6460 FILLER_137_833
*6461 FILLER_137_839
*6462 FILLER_137_841
*6463 FILLER_137_853
*6464 FILLER_137_865
*6465 FILLER_137_877
*6466 FILLER_137_889
*6467 FILLER_137_895
*6468 FILLER_137_897
*6469 FILLER_137_909
*6470 FILLER_137_921
*6471 FILLER_137_93
*6472 FILLER_137_933
*6473 FILLER_137_945
*6474 FILLER_137_951
*6475 FILLER_137_953
*6476 FILLER_137_965
*6477 FILLER_137_977
*6478 FILLER_137_989
*6479 FILLER_138_1005
*6480 FILLER_138_1017
*6481 FILLER_138_1029
*6482 FILLER_138_1035
*6483 FILLER_138_1037
*6484 FILLER_138_1049
*6485 FILLER_138_1061
*6486 FILLER_138_1073
*6487 FILLER_138_1085
*6488 FILLER_138_109
*6489 FILLER_138_1091
*6490 FILLER_138_1093
*6491 FILLER_138_1105
*6492 FILLER_138_1117
*6493 FILLER_138_1129
*6494 FILLER_138_1141
*6495 FILLER_138_1147
*6496 FILLER_138_1149
*6497 FILLER_138_1161
*6498 FILLER_138_1173
*6499 FILLER_138_1185
*6500 FILLER_138_1197
*6501 FILLER_138_1203
*6502 FILLER_138_1205
*6503 FILLER_138_121
*6504 FILLER_138_1217
*6505 FILLER_138_1229
*6506 FILLER_138_1241
*6507 FILLER_138_1253
*6508 FILLER_138_1259
*6509 FILLER_138_1261
*6510 FILLER_138_1273
*6511 FILLER_138_133
*6512 FILLER_138_139
*6513 FILLER_138_141
*6514 FILLER_138_15
*6515 FILLER_138_153
*6516 FILLER_138_165
*6517 FILLER_138_177
*6518 FILLER_138_189
*6519 FILLER_138_195
*6520 FILLER_138_197
*6521 FILLER_138_209
*6522 FILLER_138_221
*6523 FILLER_138_233
*6524 FILLER_138_245
*6525 FILLER_138_251
*6526 FILLER_138_253
*6527 FILLER_138_265
*6528 FILLER_138_27
*6529 FILLER_138_277
*6530 FILLER_138_289
*6531 FILLER_138_29
*6532 FILLER_138_3
*6533 FILLER_138_301
*6534 FILLER_138_307
*6535 FILLER_138_309
*6536 FILLER_138_321
*6537 FILLER_138_333
*6538 FILLER_138_345
*6539 FILLER_138_357
*6540 FILLER_138_363
*6541 FILLER_138_365
*6542 FILLER_138_377
*6543 FILLER_138_389
*6544 FILLER_138_401
*6545 FILLER_138_41
*6546 FILLER_138_413
*6547 FILLER_138_419
*6548 FILLER_138_421
*6549 FILLER_138_433
*6550 FILLER_138_445
*6551 FILLER_138_457
*6552 FILLER_138_469
*6553 FILLER_138_475
*6554 FILLER_138_477
*6555 FILLER_138_489
*6556 FILLER_138_501
*6557 FILLER_138_513
*6558 FILLER_138_525
*6559 FILLER_138_53
*6560 FILLER_138_531
*6561 FILLER_138_533
*6562 FILLER_138_545
*6563 FILLER_138_557
*6564 FILLER_138_569
*6565 FILLER_138_581
*6566 FILLER_138_587
*6567 FILLER_138_589
*6568 FILLER_138_601
*6569 FILLER_138_613
*6570 FILLER_138_625
*6571 FILLER_138_637
*6572 FILLER_138_643
*6573 FILLER_138_645
*6574 FILLER_138_65
*6575 FILLER_138_657
*6576 FILLER_138_669
*6577 FILLER_138_681
*6578 FILLER_138_693
*6579 FILLER_138_699
*6580 FILLER_138_701
*6581 FILLER_138_713
*6582 FILLER_138_725
*6583 FILLER_138_737
*6584 FILLER_138_749
*6585 FILLER_138_755
*6586 FILLER_138_757
*6587 FILLER_138_769
*6588 FILLER_138_77
*6589 FILLER_138_781
*6590 FILLER_138_793
*6591 FILLER_138_805
*6592 FILLER_138_811
*6593 FILLER_138_813
*6594 FILLER_138_825
*6595 FILLER_138_83
*6596 FILLER_138_837
*6597 FILLER_138_849
*6598 FILLER_138_85
*6599 FILLER_138_861
*6600 FILLER_138_867
*6601 FILLER_138_869
*6602 FILLER_138_881
*6603 FILLER_138_893
*6604 FILLER_138_905
*6605 FILLER_138_917
*6606 FILLER_138_923
*6607 FILLER_138_925
*6608 FILLER_138_937
*6609 FILLER_138_949
*6610 FILLER_138_961
*6611 FILLER_138_97
*6612 FILLER_138_973
*6613 FILLER_138_979
*6614 FILLER_138_981
*6615 FILLER_138_993
*6616 FILLER_139_1001
*6617 FILLER_139_1007
*6618 FILLER_139_1009
*6619 FILLER_139_1021
*6620 FILLER_139_1033
*6621 FILLER_139_1045
*6622 FILLER_139_105
*6623 FILLER_139_1057
*6624 FILLER_139_1063
*6625 FILLER_139_1065
*6626 FILLER_139_1077
*6627 FILLER_139_1089
*6628 FILLER_139_1101
*6629 FILLER_139_111
*6630 FILLER_139_1113
*6631 FILLER_139_1119
*6632 FILLER_139_1121
*6633 FILLER_139_113
*6634 FILLER_139_1133
*6635 FILLER_139_1145
*6636 FILLER_139_1157
*6637 FILLER_139_1169
*6638 FILLER_139_1175
*6639 FILLER_139_1177
*6640 FILLER_139_1189
*6641 FILLER_139_1201
*6642 FILLER_139_1213
*6643 FILLER_139_1225
*6644 FILLER_139_1231
*6645 FILLER_139_1233
*6646 FILLER_139_1245
*6647 FILLER_139_125
*6648 FILLER_139_1257
*6649 FILLER_139_1269
*6650 FILLER_139_1276
*6651 FILLER_139_137
*6652 FILLER_139_149
*6653 FILLER_139_161
*6654 FILLER_139_167
*6655 FILLER_139_169
*6656 FILLER_139_181
*6657 FILLER_139_19
*6658 FILLER_139_193
*6659 FILLER_139_205
*6660 FILLER_139_217
*6661 FILLER_139_223
*6662 FILLER_139_225
*6663 FILLER_139_237
*6664 FILLER_139_249
*6665 FILLER_139_261
*6666 FILLER_139_273
*6667 FILLER_139_279
*6668 FILLER_139_281
*6669 FILLER_139_293
*6670 FILLER_139_3
*6671 FILLER_139_305
*6672 FILLER_139_31
*6673 FILLER_139_317
*6674 FILLER_139_329
*6675 FILLER_139_335
*6676 FILLER_139_337
*6677 FILLER_139_349
*6678 FILLER_139_361
*6679 FILLER_139_373
*6680 FILLER_139_385
*6681 FILLER_139_391
*6682 FILLER_139_393
*6683 FILLER_139_405
*6684 FILLER_139_417
*6685 FILLER_139_429
*6686 FILLER_139_43
*6687 FILLER_139_441
*6688 FILLER_139_447
*6689 FILLER_139_449
*6690 FILLER_139_461
*6691 FILLER_139_473
*6692 FILLER_139_485
*6693 FILLER_139_497
*6694 FILLER_139_503
*6695 FILLER_139_505
*6696 FILLER_139_517
*6697 FILLER_139_529
*6698 FILLER_139_541
*6699 FILLER_139_55
*6700 FILLER_139_553
*6701 FILLER_139_559
*6702 FILLER_139_561
*6703 FILLER_139_57
*6704 FILLER_139_573
*6705 FILLER_139_585
*6706 FILLER_139_597
*6707 FILLER_139_609
*6708 FILLER_139_615
*6709 FILLER_139_617
*6710 FILLER_139_629
*6711 FILLER_139_641
*6712 FILLER_139_653
*6713 FILLER_139_665
*6714 FILLER_139_671
*6715 FILLER_139_673
*6716 FILLER_139_685
*6717 FILLER_139_69
*6718 FILLER_139_697
*6719 FILLER_139_7
*6720 FILLER_139_709
*6721 FILLER_139_721
*6722 FILLER_139_727
*6723 FILLER_139_729
*6724 FILLER_139_741
*6725 FILLER_139_753
*6726 FILLER_139_765
*6727 FILLER_139_777
*6728 FILLER_139_783
*6729 FILLER_139_785
*6730 FILLER_139_797
*6731 FILLER_139_809
*6732 FILLER_139_81
*6733 FILLER_139_821
*6734 FILLER_139_833
*6735 FILLER_139_839
*6736 FILLER_139_841
*6737 FILLER_139_853
*6738 FILLER_139_865
*6739 FILLER_139_877
*6740 FILLER_139_889
*6741 FILLER_139_895
*6742 FILLER_139_897
*6743 FILLER_139_909
*6744 FILLER_139_921
*6745 FILLER_139_93
*6746 FILLER_139_933
*6747 FILLER_139_945
*6748 FILLER_139_951
*6749 FILLER_139_953
*6750 FILLER_139_965
*6751 FILLER_139_977
*6752 FILLER_139_989
*6753 FILLER_13_1001
*6754 FILLER_13_1007
*6755 FILLER_13_1009
*6756 FILLER_13_1021
*6757 FILLER_13_1033
*6758 FILLER_13_1045
*6759 FILLER_13_105
*6760 FILLER_13_1057
*6761 FILLER_13_1063
*6762 FILLER_13_1065
*6763 FILLER_13_1077
*6764 FILLER_13_1089
*6765 FILLER_13_1101
*6766 FILLER_13_111
*6767 FILLER_13_1113
*6768 FILLER_13_1119
*6769 FILLER_13_1121
*6770 FILLER_13_113
*6771 FILLER_13_1133
*6772 FILLER_13_1145
*6773 FILLER_13_1157
*6774 FILLER_13_1169
*6775 FILLER_13_1175
*6776 FILLER_13_1177
*6777 FILLER_13_1189
*6778 FILLER_13_1201
*6779 FILLER_13_1213
*6780 FILLER_13_1225
*6781 FILLER_13_1231
*6782 FILLER_13_1233
*6783 FILLER_13_1245
*6784 FILLER_13_125
*6785 FILLER_13_1257
*6786 FILLER_13_1269
*6787 FILLER_13_137
*6788 FILLER_13_149
*6789 FILLER_13_15
*6790 FILLER_13_161
*6791 FILLER_13_167
*6792 FILLER_13_169
*6793 FILLER_13_181
*6794 FILLER_13_193
*6795 FILLER_13_205
*6796 FILLER_13_217
*6797 FILLER_13_223
*6798 FILLER_13_225
*6799 FILLER_13_237
*6800 FILLER_13_249
*6801 FILLER_13_261
*6802 FILLER_13_27
*6803 FILLER_13_273
*6804 FILLER_13_279
*6805 FILLER_13_281
*6806 FILLER_13_293
*6807 FILLER_13_3
*6808 FILLER_13_305
*6809 FILLER_13_317
*6810 FILLER_13_329
*6811 FILLER_13_335
*6812 FILLER_13_337
*6813 FILLER_13_349
*6814 FILLER_13_361
*6815 FILLER_13_373
*6816 FILLER_13_385
*6817 FILLER_13_39
*6818 FILLER_13_391
*6819 FILLER_13_393
*6820 FILLER_13_405
*6821 FILLER_13_417
*6822 FILLER_13_429
*6823 FILLER_13_441
*6824 FILLER_13_447
*6825 FILLER_13_449
*6826 FILLER_13_461
*6827 FILLER_13_473
*6828 FILLER_13_485
*6829 FILLER_13_497
*6830 FILLER_13_503
*6831 FILLER_13_505
*6832 FILLER_13_51
*6833 FILLER_13_517
*6834 FILLER_13_529
*6835 FILLER_13_541
*6836 FILLER_13_55
*6837 FILLER_13_553
*6838 FILLER_13_559
*6839 FILLER_13_561
*6840 FILLER_13_57
*6841 FILLER_13_573
*6842 FILLER_13_585
*6843 FILLER_13_597
*6844 FILLER_13_609
*6845 FILLER_13_615
*6846 FILLER_13_617
*6847 FILLER_13_629
*6848 FILLER_13_641
*6849 FILLER_13_653
*6850 FILLER_13_665
*6851 FILLER_13_671
*6852 FILLER_13_673
*6853 FILLER_13_685
*6854 FILLER_13_69
*6855 FILLER_13_697
*6856 FILLER_13_709
*6857 FILLER_13_721
*6858 FILLER_13_727
*6859 FILLER_13_729
*6860 FILLER_13_741
*6861 FILLER_13_753
*6862 FILLER_13_765
*6863 FILLER_13_777
*6864 FILLER_13_783
*6865 FILLER_13_785
*6866 FILLER_13_797
*6867 FILLER_13_809
*6868 FILLER_13_81
*6869 FILLER_13_821
*6870 FILLER_13_833
*6871 FILLER_13_839
*6872 FILLER_13_841
*6873 FILLER_13_853
*6874 FILLER_13_865
*6875 FILLER_13_877
*6876 FILLER_13_889
*6877 FILLER_13_895
*6878 FILLER_13_897
*6879 FILLER_13_909
*6880 FILLER_13_921
*6881 FILLER_13_93
*6882 FILLER_13_933
*6883 FILLER_13_945
*6884 FILLER_13_951
*6885 FILLER_13_953
*6886 FILLER_13_965
*6887 FILLER_13_977
*6888 FILLER_13_989
*6889 FILLER_140_1005
*6890 FILLER_140_1017
*6891 FILLER_140_1029
*6892 FILLER_140_1035
*6893 FILLER_140_1037
*6894 FILLER_140_1049
*6895 FILLER_140_1061
*6896 FILLER_140_1073
*6897 FILLER_140_1085
*6898 FILLER_140_109
*6899 FILLER_140_1091
*6900 FILLER_140_1093
*6901 FILLER_140_1105
*6902 FILLER_140_1117
*6903 FILLER_140_1129
*6904 FILLER_140_1141
*6905 FILLER_140_1147
*6906 FILLER_140_1149
*6907 FILLER_140_1161
*6908 FILLER_140_1173
*6909 FILLER_140_1185
*6910 FILLER_140_1197
*6911 FILLER_140_1203
*6912 FILLER_140_1205
*6913 FILLER_140_121
*6914 FILLER_140_1217
*6915 FILLER_140_1229
*6916 FILLER_140_1241
*6917 FILLER_140_1253
*6918 FILLER_140_1259
*6919 FILLER_140_1261
*6920 FILLER_140_1276
*6921 FILLER_140_133
*6922 FILLER_140_139
*6923 FILLER_140_141
*6924 FILLER_140_153
*6925 FILLER_140_165
*6926 FILLER_140_177
*6927 FILLER_140_189
*6928 FILLER_140_19
*6929 FILLER_140_195
*6930 FILLER_140_197
*6931 FILLER_140_209
*6932 FILLER_140_221
*6933 FILLER_140_233
*6934 FILLER_140_245
*6935 FILLER_140_251
*6936 FILLER_140_253
*6937 FILLER_140_265
*6938 FILLER_140_27
*6939 FILLER_140_277
*6940 FILLER_140_289
*6941 FILLER_140_29
*6942 FILLER_140_3
*6943 FILLER_140_301
*6944 FILLER_140_307
*6945 FILLER_140_309
*6946 FILLER_140_321
*6947 FILLER_140_333
*6948 FILLER_140_345
*6949 FILLER_140_357
*6950 FILLER_140_363
*6951 FILLER_140_365
*6952 FILLER_140_377
*6953 FILLER_140_389
*6954 FILLER_140_401
*6955 FILLER_140_41
*6956 FILLER_140_413
*6957 FILLER_140_419
*6958 FILLER_140_421
*6959 FILLER_140_433
*6960 FILLER_140_445
*6961 FILLER_140_457
*6962 FILLER_140_469
*6963 FILLER_140_475
*6964 FILLER_140_477
*6965 FILLER_140_489
*6966 FILLER_140_501
*6967 FILLER_140_513
*6968 FILLER_140_525
*6969 FILLER_140_53
*6970 FILLER_140_531
*6971 FILLER_140_533
*6972 FILLER_140_545
*6973 FILLER_140_557
*6974 FILLER_140_569
*6975 FILLER_140_581
*6976 FILLER_140_587
*6977 FILLER_140_589
*6978 FILLER_140_601
*6979 FILLER_140_613
*6980 FILLER_140_625
*6981 FILLER_140_637
*6982 FILLER_140_643
*6983 FILLER_140_645
*6984 FILLER_140_65
*6985 FILLER_140_657
*6986 FILLER_140_669
*6987 FILLER_140_681
*6988 FILLER_140_693
*6989 FILLER_140_699
*6990 FILLER_140_7
*6991 FILLER_140_701
*6992 FILLER_140_713
*6993 FILLER_140_725
*6994 FILLER_140_737
*6995 FILLER_140_749
*6996 FILLER_140_755
*6997 FILLER_140_757
*6998 FILLER_140_769
*6999 FILLER_140_77
*7000 FILLER_140_781
*7001 FILLER_140_793
*7002 FILLER_140_805
*7003 FILLER_140_811
*7004 FILLER_140_813
*7005 FILLER_140_825
*7006 FILLER_140_83
*7007 FILLER_140_837
*7008 FILLER_140_849
*7009 FILLER_140_85
*7010 FILLER_140_861
*7011 FILLER_140_867
*7012 FILLER_140_869
*7013 FILLER_140_881
*7014 FILLER_140_893
*7015 FILLER_140_905
*7016 FILLER_140_917
*7017 FILLER_140_923
*7018 FILLER_140_925
*7019 FILLER_140_937
*7020 FILLER_140_949
*7021 FILLER_140_961
*7022 FILLER_140_97
*7023 FILLER_140_973
*7024 FILLER_140_979
*7025 FILLER_140_981
*7026 FILLER_140_993
*7027 FILLER_141_1001
*7028 FILLER_141_1007
*7029 FILLER_141_1009
*7030 FILLER_141_1021
*7031 FILLER_141_1033
*7032 FILLER_141_1045
*7033 FILLER_141_105
*7034 FILLER_141_1057
*7035 FILLER_141_1063
*7036 FILLER_141_1065
*7037 FILLER_141_1077
*7038 FILLER_141_1089
*7039 FILLER_141_1101
*7040 FILLER_141_111
*7041 FILLER_141_1113
*7042 FILLER_141_1119
*7043 FILLER_141_1121
*7044 FILLER_141_113
*7045 FILLER_141_1133
*7046 FILLER_141_1145
*7047 FILLER_141_1157
*7048 FILLER_141_1169
*7049 FILLER_141_1175
*7050 FILLER_141_1177
*7051 FILLER_141_1189
*7052 FILLER_141_1201
*7053 FILLER_141_1213
*7054 FILLER_141_1225
*7055 FILLER_141_1231
*7056 FILLER_141_1233
*7057 FILLER_141_1245
*7058 FILLER_141_125
*7059 FILLER_141_1257
*7060 FILLER_141_1269
*7061 FILLER_141_1276
*7062 FILLER_141_137
*7063 FILLER_141_149
*7064 FILLER_141_161
*7065 FILLER_141_167
*7066 FILLER_141_169
*7067 FILLER_141_181
*7068 FILLER_141_19
*7069 FILLER_141_193
*7070 FILLER_141_205
*7071 FILLER_141_217
*7072 FILLER_141_223
*7073 FILLER_141_225
*7074 FILLER_141_237
*7075 FILLER_141_249
*7076 FILLER_141_261
*7077 FILLER_141_273
*7078 FILLER_141_279
*7079 FILLER_141_281
*7080 FILLER_141_293
*7081 FILLER_141_3
*7082 FILLER_141_305
*7083 FILLER_141_31
*7084 FILLER_141_317
*7085 FILLER_141_329
*7086 FILLER_141_335
*7087 FILLER_141_337
*7088 FILLER_141_349
*7089 FILLER_141_361
*7090 FILLER_141_373
*7091 FILLER_141_385
*7092 FILLER_141_391
*7093 FILLER_141_393
*7094 FILLER_141_405
*7095 FILLER_141_417
*7096 FILLER_141_429
*7097 FILLER_141_43
*7098 FILLER_141_441
*7099 FILLER_141_447
*7100 FILLER_141_449
*7101 FILLER_141_461
*7102 FILLER_141_473
*7103 FILLER_141_485
*7104 FILLER_141_497
*7105 FILLER_141_503
*7106 FILLER_141_505
*7107 FILLER_141_517
*7108 FILLER_141_529
*7109 FILLER_141_541
*7110 FILLER_141_55
*7111 FILLER_141_553
*7112 FILLER_141_559
*7113 FILLER_141_561
*7114 FILLER_141_57
*7115 FILLER_141_573
*7116 FILLER_141_585
*7117 FILLER_141_597
*7118 FILLER_141_609
*7119 FILLER_141_615
*7120 FILLER_141_617
*7121 FILLER_141_629
*7122 FILLER_141_641
*7123 FILLER_141_653
*7124 FILLER_141_665
*7125 FILLER_141_671
*7126 FILLER_141_673
*7127 FILLER_141_685
*7128 FILLER_141_69
*7129 FILLER_141_697
*7130 FILLER_141_7
*7131 FILLER_141_709
*7132 FILLER_141_721
*7133 FILLER_141_727
*7134 FILLER_141_729
*7135 FILLER_141_741
*7136 FILLER_141_753
*7137 FILLER_141_765
*7138 FILLER_141_777
*7139 FILLER_141_783
*7140 FILLER_141_785
*7141 FILLER_141_797
*7142 FILLER_141_809
*7143 FILLER_141_81
*7144 FILLER_141_821
*7145 FILLER_141_833
*7146 FILLER_141_839
*7147 FILLER_141_841
*7148 FILLER_141_853
*7149 FILLER_141_865
*7150 FILLER_141_877
*7151 FILLER_141_889
*7152 FILLER_141_895
*7153 FILLER_141_897
*7154 FILLER_141_909
*7155 FILLER_141_921
*7156 FILLER_141_93
*7157 FILLER_141_933
*7158 FILLER_141_945
*7159 FILLER_141_951
*7160 FILLER_141_953
*7161 FILLER_141_965
*7162 FILLER_141_977
*7163 FILLER_141_989
*7164 FILLER_142_1005
*7165 FILLER_142_1017
*7166 FILLER_142_1029
*7167 FILLER_142_1035
*7168 FILLER_142_1037
*7169 FILLER_142_1049
*7170 FILLER_142_1061
*7171 FILLER_142_1073
*7172 FILLER_142_1085
*7173 FILLER_142_109
*7174 FILLER_142_1091
*7175 FILLER_142_1093
*7176 FILLER_142_1105
*7177 FILLER_142_1117
*7178 FILLER_142_1129
*7179 FILLER_142_1141
*7180 FILLER_142_1147
*7181 FILLER_142_1149
*7182 FILLER_142_1161
*7183 FILLER_142_1173
*7184 FILLER_142_1185
*7185 FILLER_142_1197
*7186 FILLER_142_1203
*7187 FILLER_142_1205
*7188 FILLER_142_121
*7189 FILLER_142_1217
*7190 FILLER_142_1229
*7191 FILLER_142_1241
*7192 FILLER_142_1253
*7193 FILLER_142_1259
*7194 FILLER_142_1261
*7195 FILLER_142_1276
*7196 FILLER_142_133
*7197 FILLER_142_139
*7198 FILLER_142_141
*7199 FILLER_142_15
*7200 FILLER_142_153
*7201 FILLER_142_165
*7202 FILLER_142_177
*7203 FILLER_142_189
*7204 FILLER_142_195
*7205 FILLER_142_197
*7206 FILLER_142_209
*7207 FILLER_142_221
*7208 FILLER_142_233
*7209 FILLER_142_245
*7210 FILLER_142_251
*7211 FILLER_142_253
*7212 FILLER_142_265
*7213 FILLER_142_27
*7214 FILLER_142_277
*7215 FILLER_142_289
*7216 FILLER_142_29
*7217 FILLER_142_3
*7218 FILLER_142_301
*7219 FILLER_142_307
*7220 FILLER_142_309
*7221 FILLER_142_321
*7222 FILLER_142_333
*7223 FILLER_142_345
*7224 FILLER_142_357
*7225 FILLER_142_363
*7226 FILLER_142_365
*7227 FILLER_142_377
*7228 FILLER_142_389
*7229 FILLER_142_401
*7230 FILLER_142_41
*7231 FILLER_142_413
*7232 FILLER_142_419
*7233 FILLER_142_421
*7234 FILLER_142_433
*7235 FILLER_142_445
*7236 FILLER_142_457
*7237 FILLER_142_469
*7238 FILLER_142_475
*7239 FILLER_142_477
*7240 FILLER_142_489
*7241 FILLER_142_501
*7242 FILLER_142_513
*7243 FILLER_142_525
*7244 FILLER_142_53
*7245 FILLER_142_531
*7246 FILLER_142_533
*7247 FILLER_142_545
*7248 FILLER_142_557
*7249 FILLER_142_569
*7250 FILLER_142_581
*7251 FILLER_142_587
*7252 FILLER_142_589
*7253 FILLER_142_601
*7254 FILLER_142_613
*7255 FILLER_142_625
*7256 FILLER_142_637
*7257 FILLER_142_643
*7258 FILLER_142_645
*7259 FILLER_142_65
*7260 FILLER_142_657
*7261 FILLER_142_669
*7262 FILLER_142_681
*7263 FILLER_142_693
*7264 FILLER_142_699
*7265 FILLER_142_701
*7266 FILLER_142_713
*7267 FILLER_142_725
*7268 FILLER_142_737
*7269 FILLER_142_749
*7270 FILLER_142_755
*7271 FILLER_142_757
*7272 FILLER_142_769
*7273 FILLER_142_77
*7274 FILLER_142_781
*7275 FILLER_142_793
*7276 FILLER_142_805
*7277 FILLER_142_811
*7278 FILLER_142_813
*7279 FILLER_142_825
*7280 FILLER_142_83
*7281 FILLER_142_837
*7282 FILLER_142_849
*7283 FILLER_142_85
*7284 FILLER_142_861
*7285 FILLER_142_867
*7286 FILLER_142_869
*7287 FILLER_142_881
*7288 FILLER_142_893
*7289 FILLER_142_905
*7290 FILLER_142_917
*7291 FILLER_142_923
*7292 FILLER_142_925
*7293 FILLER_142_937
*7294 FILLER_142_949
*7295 FILLER_142_961
*7296 FILLER_142_97
*7297 FILLER_142_973
*7298 FILLER_142_979
*7299 FILLER_142_981
*7300 FILLER_142_993
*7301 FILLER_143_1001
*7302 FILLER_143_1007
*7303 FILLER_143_1009
*7304 FILLER_143_1021
*7305 FILLER_143_1033
*7306 FILLER_143_1045
*7307 FILLER_143_105
*7308 FILLER_143_1057
*7309 FILLER_143_1063
*7310 FILLER_143_1065
*7311 FILLER_143_1077
*7312 FILLER_143_1089
*7313 FILLER_143_1101
*7314 FILLER_143_111
*7315 FILLER_143_1113
*7316 FILLER_143_1119
*7317 FILLER_143_1121
*7318 FILLER_143_113
*7319 FILLER_143_1133
*7320 FILLER_143_1145
*7321 FILLER_143_1157
*7322 FILLER_143_1169
*7323 FILLER_143_1175
*7324 FILLER_143_1177
*7325 FILLER_143_1189
*7326 FILLER_143_1201
*7327 FILLER_143_1213
*7328 FILLER_143_1225
*7329 FILLER_143_1231
*7330 FILLER_143_1233
*7331 FILLER_143_1245
*7332 FILLER_143_125
*7333 FILLER_143_1257
*7334 FILLER_143_1269
*7335 FILLER_143_137
*7336 FILLER_143_149
*7337 FILLER_143_15
*7338 FILLER_143_161
*7339 FILLER_143_167
*7340 FILLER_143_169
*7341 FILLER_143_181
*7342 FILLER_143_193
*7343 FILLER_143_205
*7344 FILLER_143_217
*7345 FILLER_143_223
*7346 FILLER_143_225
*7347 FILLER_143_237
*7348 FILLER_143_249
*7349 FILLER_143_261
*7350 FILLER_143_27
*7351 FILLER_143_273
*7352 FILLER_143_279
*7353 FILLER_143_281
*7354 FILLER_143_293
*7355 FILLER_143_3
*7356 FILLER_143_305
*7357 FILLER_143_317
*7358 FILLER_143_329
*7359 FILLER_143_335
*7360 FILLER_143_337
*7361 FILLER_143_349
*7362 FILLER_143_361
*7363 FILLER_143_373
*7364 FILLER_143_385
*7365 FILLER_143_39
*7366 FILLER_143_391
*7367 FILLER_143_393
*7368 FILLER_143_405
*7369 FILLER_143_417
*7370 FILLER_143_429
*7371 FILLER_143_441
*7372 FILLER_143_447
*7373 FILLER_143_449
*7374 FILLER_143_461
*7375 FILLER_143_473
*7376 FILLER_143_485
*7377 FILLER_143_497
*7378 FILLER_143_503
*7379 FILLER_143_505
*7380 FILLER_143_51
*7381 FILLER_143_517
*7382 FILLER_143_529
*7383 FILLER_143_541
*7384 FILLER_143_55
*7385 FILLER_143_553
*7386 FILLER_143_559
*7387 FILLER_143_561
*7388 FILLER_143_57
*7389 FILLER_143_573
*7390 FILLER_143_585
*7391 FILLER_143_597
*7392 FILLER_143_609
*7393 FILLER_143_615
*7394 FILLER_143_617
*7395 FILLER_143_629
*7396 FILLER_143_641
*7397 FILLER_143_653
*7398 FILLER_143_665
*7399 FILLER_143_671
*7400 FILLER_143_673
*7401 FILLER_143_685
*7402 FILLER_143_69
*7403 FILLER_143_697
*7404 FILLER_143_709
*7405 FILLER_143_721
*7406 FILLER_143_727
*7407 FILLER_143_729
*7408 FILLER_143_741
*7409 FILLER_143_753
*7410 FILLER_143_765
*7411 FILLER_143_777
*7412 FILLER_143_783
*7413 FILLER_143_785
*7414 FILLER_143_797
*7415 FILLER_143_809
*7416 FILLER_143_81
*7417 FILLER_143_821
*7418 FILLER_143_833
*7419 FILLER_143_839
*7420 FILLER_143_841
*7421 FILLER_143_853
*7422 FILLER_143_865
*7423 FILLER_143_877
*7424 FILLER_143_889
*7425 FILLER_143_895
*7426 FILLER_143_897
*7427 FILLER_143_909
*7428 FILLER_143_921
*7429 FILLER_143_93
*7430 FILLER_143_933
*7431 FILLER_143_945
*7432 FILLER_143_951
*7433 FILLER_143_953
*7434 FILLER_143_965
*7435 FILLER_143_977
*7436 FILLER_143_989
*7437 FILLER_144_1005
*7438 FILLER_144_1017
*7439 FILLER_144_1029
*7440 FILLER_144_1035
*7441 FILLER_144_1037
*7442 FILLER_144_1049
*7443 FILLER_144_1061
*7444 FILLER_144_1073
*7445 FILLER_144_1085
*7446 FILLER_144_109
*7447 FILLER_144_1091
*7448 FILLER_144_1093
*7449 FILLER_144_1105
*7450 FILLER_144_1117
*7451 FILLER_144_1129
*7452 FILLER_144_1141
*7453 FILLER_144_1147
*7454 FILLER_144_1149
*7455 FILLER_144_1161
*7456 FILLER_144_1173
*7457 FILLER_144_1185
*7458 FILLER_144_1197
*7459 FILLER_144_1203
*7460 FILLER_144_1205
*7461 FILLER_144_121
*7462 FILLER_144_1217
*7463 FILLER_144_1229
*7464 FILLER_144_1241
*7465 FILLER_144_1253
*7466 FILLER_144_1259
*7467 FILLER_144_1261
*7468 FILLER_144_1276
*7469 FILLER_144_133
*7470 FILLER_144_139
*7471 FILLER_144_141
*7472 FILLER_144_153
*7473 FILLER_144_165
*7474 FILLER_144_177
*7475 FILLER_144_189
*7476 FILLER_144_19
*7477 FILLER_144_195
*7478 FILLER_144_197
*7479 FILLER_144_209
*7480 FILLER_144_221
*7481 FILLER_144_233
*7482 FILLER_144_245
*7483 FILLER_144_251
*7484 FILLER_144_253
*7485 FILLER_144_265
*7486 FILLER_144_27
*7487 FILLER_144_277
*7488 FILLER_144_289
*7489 FILLER_144_29
*7490 FILLER_144_3
*7491 FILLER_144_301
*7492 FILLER_144_307
*7493 FILLER_144_309
*7494 FILLER_144_321
*7495 FILLER_144_333
*7496 FILLER_144_345
*7497 FILLER_144_357
*7498 FILLER_144_363
*7499 FILLER_144_365
*7500 FILLER_144_377
*7501 FILLER_144_389
*7502 FILLER_144_401
*7503 FILLER_144_41
*7504 FILLER_144_413
*7505 FILLER_144_419
*7506 FILLER_144_421
*7507 FILLER_144_433
*7508 FILLER_144_445
*7509 FILLER_144_457
*7510 FILLER_144_469
*7511 FILLER_144_475
*7512 FILLER_144_477
*7513 FILLER_144_489
*7514 FILLER_144_501
*7515 FILLER_144_513
*7516 FILLER_144_525
*7517 FILLER_144_53
*7518 FILLER_144_531
*7519 FILLER_144_533
*7520 FILLER_144_545
*7521 FILLER_144_557
*7522 FILLER_144_569
*7523 FILLER_144_581
*7524 FILLER_144_587
*7525 FILLER_144_589
*7526 FILLER_144_601
*7527 FILLER_144_613
*7528 FILLER_144_625
*7529 FILLER_144_637
*7530 FILLER_144_643
*7531 FILLER_144_645
*7532 FILLER_144_65
*7533 FILLER_144_657
*7534 FILLER_144_669
*7535 FILLER_144_681
*7536 FILLER_144_693
*7537 FILLER_144_699
*7538 FILLER_144_7
*7539 FILLER_144_701
*7540 FILLER_144_713
*7541 FILLER_144_725
*7542 FILLER_144_737
*7543 FILLER_144_749
*7544 FILLER_144_755
*7545 FILLER_144_757
*7546 FILLER_144_769
*7547 FILLER_144_77
*7548 FILLER_144_781
*7549 FILLER_144_793
*7550 FILLER_144_805
*7551 FILLER_144_811
*7552 FILLER_144_813
*7553 FILLER_144_825
*7554 FILLER_144_83
*7555 FILLER_144_837
*7556 FILLER_144_849
*7557 FILLER_144_85
*7558 FILLER_144_861
*7559 FILLER_144_867
*7560 FILLER_144_869
*7561 FILLER_144_881
*7562 FILLER_144_893
*7563 FILLER_144_905
*7564 FILLER_144_917
*7565 FILLER_144_923
*7566 FILLER_144_925
*7567 FILLER_144_937
*7568 FILLER_144_949
*7569 FILLER_144_961
*7570 FILLER_144_97
*7571 FILLER_144_973
*7572 FILLER_144_979
*7573 FILLER_144_981
*7574 FILLER_144_993
*7575 FILLER_145_1001
*7576 FILLER_145_1007
*7577 FILLER_145_1009
*7578 FILLER_145_1021
*7579 FILLER_145_1033
*7580 FILLER_145_1045
*7581 FILLER_145_105
*7582 FILLER_145_1057
*7583 FILLER_145_1063
*7584 FILLER_145_1065
*7585 FILLER_145_1077
*7586 FILLER_145_1089
*7587 FILLER_145_1101
*7588 FILLER_145_111
*7589 FILLER_145_1113
*7590 FILLER_145_1119
*7591 FILLER_145_1121
*7592 FILLER_145_113
*7593 FILLER_145_1133
*7594 FILLER_145_1145
*7595 FILLER_145_1157
*7596 FILLER_145_1169
*7597 FILLER_145_1175
*7598 FILLER_145_1177
*7599 FILLER_145_1189
*7600 FILLER_145_1201
*7601 FILLER_145_1213
*7602 FILLER_145_1225
*7603 FILLER_145_1231
*7604 FILLER_145_1233
*7605 FILLER_145_1245
*7606 FILLER_145_125
*7607 FILLER_145_1257
*7608 FILLER_145_1269
*7609 FILLER_145_1276
*7610 FILLER_145_137
*7611 FILLER_145_149
*7612 FILLER_145_161
*7613 FILLER_145_167
*7614 FILLER_145_169
*7615 FILLER_145_181
*7616 FILLER_145_19
*7617 FILLER_145_193
*7618 FILLER_145_205
*7619 FILLER_145_217
*7620 FILLER_145_223
*7621 FILLER_145_225
*7622 FILLER_145_237
*7623 FILLER_145_249
*7624 FILLER_145_261
*7625 FILLER_145_273
*7626 FILLER_145_279
*7627 FILLER_145_281
*7628 FILLER_145_293
*7629 FILLER_145_3
*7630 FILLER_145_305
*7631 FILLER_145_31
*7632 FILLER_145_317
*7633 FILLER_145_329
*7634 FILLER_145_335
*7635 FILLER_145_337
*7636 FILLER_145_349
*7637 FILLER_145_361
*7638 FILLER_145_373
*7639 FILLER_145_385
*7640 FILLER_145_391
*7641 FILLER_145_393
*7642 FILLER_145_405
*7643 FILLER_145_417
*7644 FILLER_145_429
*7645 FILLER_145_43
*7646 FILLER_145_441
*7647 FILLER_145_447
*7648 FILLER_145_449
*7649 FILLER_145_461
*7650 FILLER_145_473
*7651 FILLER_145_485
*7652 FILLER_145_497
*7653 FILLER_145_503
*7654 FILLER_145_505
*7655 FILLER_145_517
*7656 FILLER_145_529
*7657 FILLER_145_541
*7658 FILLER_145_55
*7659 FILLER_145_553
*7660 FILLER_145_559
*7661 FILLER_145_561
*7662 FILLER_145_57
*7663 FILLER_145_573
*7664 FILLER_145_585
*7665 FILLER_145_597
*7666 FILLER_145_609
*7667 FILLER_145_615
*7668 FILLER_145_617
*7669 FILLER_145_629
*7670 FILLER_145_641
*7671 FILLER_145_653
*7672 FILLER_145_665
*7673 FILLER_145_671
*7674 FILLER_145_673
*7675 FILLER_145_685
*7676 FILLER_145_69
*7677 FILLER_145_697
*7678 FILLER_145_7
*7679 FILLER_145_709
*7680 FILLER_145_721
*7681 FILLER_145_727
*7682 FILLER_145_729
*7683 FILLER_145_741
*7684 FILLER_145_753
*7685 FILLER_145_765
*7686 FILLER_145_777
*7687 FILLER_145_783
*7688 FILLER_145_785
*7689 FILLER_145_797
*7690 FILLER_145_809
*7691 FILLER_145_81
*7692 FILLER_145_821
*7693 FILLER_145_833
*7694 FILLER_145_839
*7695 FILLER_145_841
*7696 FILLER_145_853
*7697 FILLER_145_865
*7698 FILLER_145_877
*7699 FILLER_145_889
*7700 FILLER_145_895
*7701 FILLER_145_897
*7702 FILLER_145_909
*7703 FILLER_145_921
*7704 FILLER_145_93
*7705 FILLER_145_933
*7706 FILLER_145_945
*7707 FILLER_145_951
*7708 FILLER_145_953
*7709 FILLER_145_965
*7710 FILLER_145_977
*7711 FILLER_145_989
*7712 FILLER_146_1005
*7713 FILLER_146_1017
*7714 FILLER_146_1029
*7715 FILLER_146_1035
*7716 FILLER_146_1037
*7717 FILLER_146_1049
*7718 FILLER_146_1061
*7719 FILLER_146_1073
*7720 FILLER_146_1085
*7721 FILLER_146_109
*7722 FILLER_146_1091
*7723 FILLER_146_1093
*7724 FILLER_146_1105
*7725 FILLER_146_1117
*7726 FILLER_146_1129
*7727 FILLER_146_1141
*7728 FILLER_146_1147
*7729 FILLER_146_1149
*7730 FILLER_146_1161
*7731 FILLER_146_1173
*7732 FILLER_146_1185
*7733 FILLER_146_1197
*7734 FILLER_146_1203
*7735 FILLER_146_1205
*7736 FILLER_146_121
*7737 FILLER_146_1217
*7738 FILLER_146_1229
*7739 FILLER_146_1241
*7740 FILLER_146_1253
*7741 FILLER_146_1259
*7742 FILLER_146_1261
*7743 FILLER_146_1276
*7744 FILLER_146_133
*7745 FILLER_146_139
*7746 FILLER_146_141
*7747 FILLER_146_153
*7748 FILLER_146_165
*7749 FILLER_146_177
*7750 FILLER_146_189
*7751 FILLER_146_19
*7752 FILLER_146_195
*7753 FILLER_146_197
*7754 FILLER_146_209
*7755 FILLER_146_221
*7756 FILLER_146_233
*7757 FILLER_146_245
*7758 FILLER_146_251
*7759 FILLER_146_253
*7760 FILLER_146_265
*7761 FILLER_146_27
*7762 FILLER_146_277
*7763 FILLER_146_289
*7764 FILLER_146_29
*7765 FILLER_146_3
*7766 FILLER_146_301
*7767 FILLER_146_307
*7768 FILLER_146_309
*7769 FILLER_146_321
*7770 FILLER_146_333
*7771 FILLER_146_345
*7772 FILLER_146_357
*7773 FILLER_146_363
*7774 FILLER_146_365
*7775 FILLER_146_377
*7776 FILLER_146_389
*7777 FILLER_146_401
*7778 FILLER_146_41
*7779 FILLER_146_413
*7780 FILLER_146_419
*7781 FILLER_146_421
*7782 FILLER_146_433
*7783 FILLER_146_445
*7784 FILLER_146_457
*7785 FILLER_146_469
*7786 FILLER_146_475
*7787 FILLER_146_477
*7788 FILLER_146_489
*7789 FILLER_146_501
*7790 FILLER_146_513
*7791 FILLER_146_525
*7792 FILLER_146_53
*7793 FILLER_146_531
*7794 FILLER_146_533
*7795 FILLER_146_545
*7796 FILLER_146_557
*7797 FILLER_146_569
*7798 FILLER_146_581
*7799 FILLER_146_587
*7800 FILLER_146_589
*7801 FILLER_146_601
*7802 FILLER_146_613
*7803 FILLER_146_625
*7804 FILLER_146_637
*7805 FILLER_146_643
*7806 FILLER_146_645
*7807 FILLER_146_65
*7808 FILLER_146_657
*7809 FILLER_146_669
*7810 FILLER_146_681
*7811 FILLER_146_693
*7812 FILLER_146_699
*7813 FILLER_146_7
*7814 FILLER_146_701
*7815 FILLER_146_713
*7816 FILLER_146_725
*7817 FILLER_146_737
*7818 FILLER_146_749
*7819 FILLER_146_755
*7820 FILLER_146_757
*7821 FILLER_146_769
*7822 FILLER_146_77
*7823 FILLER_146_781
*7824 FILLER_146_793
*7825 FILLER_146_805
*7826 FILLER_146_811
*7827 FILLER_146_813
*7828 FILLER_146_825
*7829 FILLER_146_83
*7830 FILLER_146_837
*7831 FILLER_146_849
*7832 FILLER_146_85
*7833 FILLER_146_861
*7834 FILLER_146_867
*7835 FILLER_146_869
*7836 FILLER_146_881
*7837 FILLER_146_893
*7838 FILLER_146_905
*7839 FILLER_146_917
*7840 FILLER_146_923
*7841 FILLER_146_925
*7842 FILLER_146_937
*7843 FILLER_146_949
*7844 FILLER_146_961
*7845 FILLER_146_97
*7846 FILLER_146_973
*7847 FILLER_146_979
*7848 FILLER_146_981
*7849 FILLER_146_993
*7850 FILLER_147_1001
*7851 FILLER_147_1007
*7852 FILLER_147_1009
*7853 FILLER_147_1021
*7854 FILLER_147_1033
*7855 FILLER_147_1045
*7856 FILLER_147_105
*7857 FILLER_147_1057
*7858 FILLER_147_1063
*7859 FILLER_147_1065
*7860 FILLER_147_1077
*7861 FILLER_147_1089
*7862 FILLER_147_1101
*7863 FILLER_147_111
*7864 FILLER_147_1113
*7865 FILLER_147_1119
*7866 FILLER_147_1121
*7867 FILLER_147_113
*7868 FILLER_147_1133
*7869 FILLER_147_1145
*7870 FILLER_147_1157
*7871 FILLER_147_1169
*7872 FILLER_147_1175
*7873 FILLER_147_1177
*7874 FILLER_147_1189
*7875 FILLER_147_1201
*7876 FILLER_147_1213
*7877 FILLER_147_1225
*7878 FILLER_147_1231
*7879 FILLER_147_1233
*7880 FILLER_147_1245
*7881 FILLER_147_125
*7882 FILLER_147_1257
*7883 FILLER_147_1269
*7884 FILLER_147_137
*7885 FILLER_147_149
*7886 FILLER_147_161
*7887 FILLER_147_167
*7888 FILLER_147_169
*7889 FILLER_147_181
*7890 FILLER_147_19
*7891 FILLER_147_193
*7892 FILLER_147_205
*7893 FILLER_147_217
*7894 FILLER_147_223
*7895 FILLER_147_225
*7896 FILLER_147_237
*7897 FILLER_147_249
*7898 FILLER_147_261
*7899 FILLER_147_273
*7900 FILLER_147_279
*7901 FILLER_147_281
*7902 FILLER_147_293
*7903 FILLER_147_3
*7904 FILLER_147_305
*7905 FILLER_147_31
*7906 FILLER_147_317
*7907 FILLER_147_329
*7908 FILLER_147_335
*7909 FILLER_147_337
*7910 FILLER_147_349
*7911 FILLER_147_361
*7912 FILLER_147_373
*7913 FILLER_147_385
*7914 FILLER_147_391
*7915 FILLER_147_393
*7916 FILLER_147_405
*7917 FILLER_147_417
*7918 FILLER_147_429
*7919 FILLER_147_43
*7920 FILLER_147_441
*7921 FILLER_147_447
*7922 FILLER_147_449
*7923 FILLER_147_461
*7924 FILLER_147_473
*7925 FILLER_147_485
*7926 FILLER_147_497
*7927 FILLER_147_503
*7928 FILLER_147_505
*7929 FILLER_147_517
*7930 FILLER_147_529
*7931 FILLER_147_541
*7932 FILLER_147_55
*7933 FILLER_147_553
*7934 FILLER_147_559
*7935 FILLER_147_561
*7936 FILLER_147_57
*7937 FILLER_147_573
*7938 FILLER_147_585
*7939 FILLER_147_597
*7940 FILLER_147_609
*7941 FILLER_147_615
*7942 FILLER_147_617
*7943 FILLER_147_629
*7944 FILLER_147_641
*7945 FILLER_147_653
*7946 FILLER_147_665
*7947 FILLER_147_671
*7948 FILLER_147_673
*7949 FILLER_147_685
*7950 FILLER_147_69
*7951 FILLER_147_697
*7952 FILLER_147_7
*7953 FILLER_147_709
*7954 FILLER_147_721
*7955 FILLER_147_727
*7956 FILLER_147_729
*7957 FILLER_147_741
*7958 FILLER_147_753
*7959 FILLER_147_765
*7960 FILLER_147_777
*7961 FILLER_147_783
*7962 FILLER_147_785
*7963 FILLER_147_797
*7964 FILLER_147_809
*7965 FILLER_147_81
*7966 FILLER_147_821
*7967 FILLER_147_833
*7968 FILLER_147_839
*7969 FILLER_147_841
*7970 FILLER_147_853
*7971 FILLER_147_865
*7972 FILLER_147_877
*7973 FILLER_147_889
*7974 FILLER_147_895
*7975 FILLER_147_897
*7976 FILLER_147_909
*7977 FILLER_147_921
*7978 FILLER_147_93
*7979 FILLER_147_933
*7980 FILLER_147_945
*7981 FILLER_147_951
*7982 FILLER_147_953
*7983 FILLER_147_965
*7984 FILLER_147_977
*7985 FILLER_147_989
*7986 FILLER_148_1005
*7987 FILLER_148_1017
*7988 FILLER_148_1029
*7989 FILLER_148_1035
*7990 FILLER_148_1037
*7991 FILLER_148_1049
*7992 FILLER_148_1061
*7993 FILLER_148_1073
*7994 FILLER_148_1085
*7995 FILLER_148_109
*7996 FILLER_148_1091
*7997 FILLER_148_1093
*7998 FILLER_148_1105
*7999 FILLER_148_1117
*8000 FILLER_148_1129
*8001 FILLER_148_1141
*8002 FILLER_148_1147
*8003 FILLER_148_1149
*8004 FILLER_148_1161
*8005 FILLER_148_1173
*8006 FILLER_148_1185
*8007 FILLER_148_1197
*8008 FILLER_148_1203
*8009 FILLER_148_1205
*8010 FILLER_148_121
*8011 FILLER_148_1217
*8012 FILLER_148_1229
*8013 FILLER_148_1241
*8014 FILLER_148_1253
*8015 FILLER_148_1259
*8016 FILLER_148_1261
*8017 FILLER_148_1273
*8018 FILLER_148_133
*8019 FILLER_148_139
*8020 FILLER_148_141
*8021 FILLER_148_15
*8022 FILLER_148_153
*8023 FILLER_148_165
*8024 FILLER_148_177
*8025 FILLER_148_189
*8026 FILLER_148_195
*8027 FILLER_148_197
*8028 FILLER_148_209
*8029 FILLER_148_221
*8030 FILLER_148_233
*8031 FILLER_148_245
*8032 FILLER_148_251
*8033 FILLER_148_253
*8034 FILLER_148_265
*8035 FILLER_148_27
*8036 FILLER_148_277
*8037 FILLER_148_289
*8038 FILLER_148_29
*8039 FILLER_148_3
*8040 FILLER_148_301
*8041 FILLER_148_307
*8042 FILLER_148_309
*8043 FILLER_148_321
*8044 FILLER_148_333
*8045 FILLER_148_345
*8046 FILLER_148_357
*8047 FILLER_148_363
*8048 FILLER_148_365
*8049 FILLER_148_377
*8050 FILLER_148_389
*8051 FILLER_148_401
*8052 FILLER_148_41
*8053 FILLER_148_413
*8054 FILLER_148_419
*8055 FILLER_148_421
*8056 FILLER_148_433
*8057 FILLER_148_445
*8058 FILLER_148_457
*8059 FILLER_148_469
*8060 FILLER_148_475
*8061 FILLER_148_477
*8062 FILLER_148_489
*8063 FILLER_148_501
*8064 FILLER_148_513
*8065 FILLER_148_525
*8066 FILLER_148_53
*8067 FILLER_148_531
*8068 FILLER_148_533
*8069 FILLER_148_545
*8070 FILLER_148_557
*8071 FILLER_148_569
*8072 FILLER_148_581
*8073 FILLER_148_587
*8074 FILLER_148_589
*8075 FILLER_148_601
*8076 FILLER_148_613
*8077 FILLER_148_625
*8078 FILLER_148_637
*8079 FILLER_148_643
*8080 FILLER_148_645
*8081 FILLER_148_65
*8082 FILLER_148_657
*8083 FILLER_148_669
*8084 FILLER_148_681
*8085 FILLER_148_693
*8086 FILLER_148_699
*8087 FILLER_148_701
*8088 FILLER_148_713
*8089 FILLER_148_725
*8090 FILLER_148_737
*8091 FILLER_148_749
*8092 FILLER_148_755
*8093 FILLER_148_757
*8094 FILLER_148_769
*8095 FILLER_148_77
*8096 FILLER_148_781
*8097 FILLER_148_793
*8098 FILLER_148_805
*8099 FILLER_148_811
*8100 FILLER_148_813
*8101 FILLER_148_825
*8102 FILLER_148_83
*8103 FILLER_148_837
*8104 FILLER_148_849
*8105 FILLER_148_85
*8106 FILLER_148_861
*8107 FILLER_148_867
*8108 FILLER_148_869
*8109 FILLER_148_881
*8110 FILLER_148_893
*8111 FILLER_148_905
*8112 FILLER_148_917
*8113 FILLER_148_923
*8114 FILLER_148_925
*8115 FILLER_148_937
*8116 FILLER_148_949
*8117 FILLER_148_961
*8118 FILLER_148_97
*8119 FILLER_148_973
*8120 FILLER_148_979
*8121 FILLER_148_981
*8122 FILLER_148_993
*8123 FILLER_149_1001
*8124 FILLER_149_1007
*8125 FILLER_149_1009
*8126 FILLER_149_1021
*8127 FILLER_149_1033
*8128 FILLER_149_1045
*8129 FILLER_149_105
*8130 FILLER_149_1057
*8131 FILLER_149_1063
*8132 FILLER_149_1065
*8133 FILLER_149_1077
*8134 FILLER_149_1089
*8135 FILLER_149_1101
*8136 FILLER_149_111
*8137 FILLER_149_1113
*8138 FILLER_149_1119
*8139 FILLER_149_1121
*8140 FILLER_149_113
*8141 FILLER_149_1133
*8142 FILLER_149_1145
*8143 FILLER_149_1157
*8144 FILLER_149_1169
*8145 FILLER_149_1175
*8146 FILLER_149_1177
*8147 FILLER_149_1189
*8148 FILLER_149_1201
*8149 FILLER_149_1213
*8150 FILLER_149_1225
*8151 FILLER_149_1231
*8152 FILLER_149_1233
*8153 FILLER_149_1245
*8154 FILLER_149_125
*8155 FILLER_149_1257
*8156 FILLER_149_1269
*8157 FILLER_149_1276
*8158 FILLER_149_137
*8159 FILLER_149_149
*8160 FILLER_149_161
*8161 FILLER_149_167
*8162 FILLER_149_169
*8163 FILLER_149_181
*8164 FILLER_149_19
*8165 FILLER_149_193
*8166 FILLER_149_205
*8167 FILLER_149_217
*8168 FILLER_149_223
*8169 FILLER_149_225
*8170 FILLER_149_237
*8171 FILLER_149_249
*8172 FILLER_149_261
*8173 FILLER_149_273
*8174 FILLER_149_279
*8175 FILLER_149_281
*8176 FILLER_149_293
*8177 FILLER_149_3
*8178 FILLER_149_305
*8179 FILLER_149_31
*8180 FILLER_149_317
*8181 FILLER_149_329
*8182 FILLER_149_335
*8183 FILLER_149_337
*8184 FILLER_149_349
*8185 FILLER_149_361
*8186 FILLER_149_373
*8187 FILLER_149_385
*8188 FILLER_149_391
*8189 FILLER_149_393
*8190 FILLER_149_405
*8191 FILLER_149_417
*8192 FILLER_149_429
*8193 FILLER_149_43
*8194 FILLER_149_441
*8195 FILLER_149_447
*8196 FILLER_149_449
*8197 FILLER_149_461
*8198 FILLER_149_473
*8199 FILLER_149_485
*8200 FILLER_149_497
*8201 FILLER_149_503
*8202 FILLER_149_505
*8203 FILLER_149_517
*8204 FILLER_149_529
*8205 FILLER_149_541
*8206 FILLER_149_55
*8207 FILLER_149_553
*8208 FILLER_149_559
*8209 FILLER_149_561
*8210 FILLER_149_57
*8211 FILLER_149_573
*8212 FILLER_149_585
*8213 FILLER_149_597
*8214 FILLER_149_609
*8215 FILLER_149_615
*8216 FILLER_149_617
*8217 FILLER_149_629
*8218 FILLER_149_641
*8219 FILLER_149_653
*8220 FILLER_149_665
*8221 FILLER_149_671
*8222 FILLER_149_673
*8223 FILLER_149_685
*8224 FILLER_149_69
*8225 FILLER_149_697
*8226 FILLER_149_7
*8227 FILLER_149_709
*8228 FILLER_149_721
*8229 FILLER_149_727
*8230 FILLER_149_729
*8231 FILLER_149_741
*8232 FILLER_149_753
*8233 FILLER_149_765
*8234 FILLER_149_777
*8235 FILLER_149_783
*8236 FILLER_149_785
*8237 FILLER_149_797
*8238 FILLER_149_809
*8239 FILLER_149_81
*8240 FILLER_149_821
*8241 FILLER_149_833
*8242 FILLER_149_839
*8243 FILLER_149_841
*8244 FILLER_149_853
*8245 FILLER_149_865
*8246 FILLER_149_877
*8247 FILLER_149_889
*8248 FILLER_149_895
*8249 FILLER_149_897
*8250 FILLER_149_909
*8251 FILLER_149_921
*8252 FILLER_149_93
*8253 FILLER_149_933
*8254 FILLER_149_945
*8255 FILLER_149_951
*8256 FILLER_149_953
*8257 FILLER_149_965
*8258 FILLER_149_977
*8259 FILLER_149_989
*8260 FILLER_14_1005
*8261 FILLER_14_1017
*8262 FILLER_14_1029
*8263 FILLER_14_1035
*8264 FILLER_14_1037
*8265 FILLER_14_1049
*8266 FILLER_14_1061
*8267 FILLER_14_1073
*8268 FILLER_14_1085
*8269 FILLER_14_109
*8270 FILLER_14_1091
*8271 FILLER_14_1093
*8272 FILLER_14_1105
*8273 FILLER_14_1117
*8274 FILLER_14_1129
*8275 FILLER_14_1141
*8276 FILLER_14_1147
*8277 FILLER_14_1149
*8278 FILLER_14_1161
*8279 FILLER_14_1173
*8280 FILLER_14_1185
*8281 FILLER_14_1197
*8282 FILLER_14_1203
*8283 FILLER_14_1205
*8284 FILLER_14_121
*8285 FILLER_14_1217
*8286 FILLER_14_1229
*8287 FILLER_14_1241
*8288 FILLER_14_1253
*8289 FILLER_14_1259
*8290 FILLER_14_1261
*8291 FILLER_14_1273
*8292 FILLER_14_133
*8293 FILLER_14_139
*8294 FILLER_14_141
*8295 FILLER_14_15
*8296 FILLER_14_153
*8297 FILLER_14_165
*8298 FILLER_14_177
*8299 FILLER_14_189
*8300 FILLER_14_195
*8301 FILLER_14_197
*8302 FILLER_14_209
*8303 FILLER_14_221
*8304 FILLER_14_233
*8305 FILLER_14_245
*8306 FILLER_14_251
*8307 FILLER_14_253
*8308 FILLER_14_265
*8309 FILLER_14_27
*8310 FILLER_14_277
*8311 FILLER_14_289
*8312 FILLER_14_29
*8313 FILLER_14_3
*8314 FILLER_14_301
*8315 FILLER_14_307
*8316 FILLER_14_309
*8317 FILLER_14_321
*8318 FILLER_14_333
*8319 FILLER_14_345
*8320 FILLER_14_357
*8321 FILLER_14_363
*8322 FILLER_14_365
*8323 FILLER_14_377
*8324 FILLER_14_389
*8325 FILLER_14_401
*8326 FILLER_14_41
*8327 FILLER_14_413
*8328 FILLER_14_419
*8329 FILLER_14_421
*8330 FILLER_14_433
*8331 FILLER_14_445
*8332 FILLER_14_457
*8333 FILLER_14_469
*8334 FILLER_14_475
*8335 FILLER_14_477
*8336 FILLER_14_489
*8337 FILLER_14_501
*8338 FILLER_14_513
*8339 FILLER_14_525
*8340 FILLER_14_53
*8341 FILLER_14_531
*8342 FILLER_14_533
*8343 FILLER_14_545
*8344 FILLER_14_557
*8345 FILLER_14_569
*8346 FILLER_14_581
*8347 FILLER_14_587
*8348 FILLER_14_589
*8349 FILLER_14_601
*8350 FILLER_14_613
*8351 FILLER_14_625
*8352 FILLER_14_637
*8353 FILLER_14_643
*8354 FILLER_14_645
*8355 FILLER_14_65
*8356 FILLER_14_657
*8357 FILLER_14_669
*8358 FILLER_14_681
*8359 FILLER_14_693
*8360 FILLER_14_699
*8361 FILLER_14_701
*8362 FILLER_14_713
*8363 FILLER_14_725
*8364 FILLER_14_737
*8365 FILLER_14_749
*8366 FILLER_14_755
*8367 FILLER_14_757
*8368 FILLER_14_769
*8369 FILLER_14_77
*8370 FILLER_14_781
*8371 FILLER_14_793
*8372 FILLER_14_805
*8373 FILLER_14_811
*8374 FILLER_14_813
*8375 FILLER_14_825
*8376 FILLER_14_83
*8377 FILLER_14_837
*8378 FILLER_14_849
*8379 FILLER_14_85
*8380 FILLER_14_861
*8381 FILLER_14_867
*8382 FILLER_14_869
*8383 FILLER_14_881
*8384 FILLER_14_893
*8385 FILLER_14_905
*8386 FILLER_14_917
*8387 FILLER_14_923
*8388 FILLER_14_925
*8389 FILLER_14_937
*8390 FILLER_14_949
*8391 FILLER_14_961
*8392 FILLER_14_97
*8393 FILLER_14_973
*8394 FILLER_14_979
*8395 FILLER_14_981
*8396 FILLER_14_993
*8397 FILLER_150_1005
*8398 FILLER_150_1017
*8399 FILLER_150_1029
*8400 FILLER_150_1035
*8401 FILLER_150_1037
*8402 FILLER_150_1049
*8403 FILLER_150_1061
*8404 FILLER_150_1073
*8405 FILLER_150_1085
*8406 FILLER_150_109
*8407 FILLER_150_1091
*8408 FILLER_150_1093
*8409 FILLER_150_1105
*8410 FILLER_150_1117
*8411 FILLER_150_1129
*8412 FILLER_150_1141
*8413 FILLER_150_1147
*8414 FILLER_150_1149
*8415 FILLER_150_1161
*8416 FILLER_150_1173
*8417 FILLER_150_1185
*8418 FILLER_150_1197
*8419 FILLER_150_1203
*8420 FILLER_150_1205
*8421 FILLER_150_121
*8422 FILLER_150_1217
*8423 FILLER_150_1229
*8424 FILLER_150_1241
*8425 FILLER_150_1253
*8426 FILLER_150_1259
*8427 FILLER_150_1261
*8428 FILLER_150_1276
*8429 FILLER_150_133
*8430 FILLER_150_139
*8431 FILLER_150_141
*8432 FILLER_150_153
*8433 FILLER_150_165
*8434 FILLER_150_177
*8435 FILLER_150_189
*8436 FILLER_150_19
*8437 FILLER_150_195
*8438 FILLER_150_197
*8439 FILLER_150_209
*8440 FILLER_150_221
*8441 FILLER_150_233
*8442 FILLER_150_245
*8443 FILLER_150_251
*8444 FILLER_150_253
*8445 FILLER_150_265
*8446 FILLER_150_27
*8447 FILLER_150_277
*8448 FILLER_150_289
*8449 FILLER_150_29
*8450 FILLER_150_3
*8451 FILLER_150_301
*8452 FILLER_150_307
*8453 FILLER_150_309
*8454 FILLER_150_321
*8455 FILLER_150_333
*8456 FILLER_150_345
*8457 FILLER_150_357
*8458 FILLER_150_363
*8459 FILLER_150_365
*8460 FILLER_150_377
*8461 FILLER_150_389
*8462 FILLER_150_401
*8463 FILLER_150_41
*8464 FILLER_150_413
*8465 FILLER_150_419
*8466 FILLER_150_421
*8467 FILLER_150_433
*8468 FILLER_150_445
*8469 FILLER_150_457
*8470 FILLER_150_469
*8471 FILLER_150_475
*8472 FILLER_150_477
*8473 FILLER_150_489
*8474 FILLER_150_501
*8475 FILLER_150_513
*8476 FILLER_150_525
*8477 FILLER_150_53
*8478 FILLER_150_531
*8479 FILLER_150_533
*8480 FILLER_150_545
*8481 FILLER_150_557
*8482 FILLER_150_569
*8483 FILLER_150_581
*8484 FILLER_150_587
*8485 FILLER_150_589
*8486 FILLER_150_601
*8487 FILLER_150_613
*8488 FILLER_150_625
*8489 FILLER_150_637
*8490 FILLER_150_643
*8491 FILLER_150_645
*8492 FILLER_150_65
*8493 FILLER_150_657
*8494 FILLER_150_669
*8495 FILLER_150_681
*8496 FILLER_150_693
*8497 FILLER_150_699
*8498 FILLER_150_7
*8499 FILLER_150_701
*8500 FILLER_150_713
*8501 FILLER_150_725
*8502 FILLER_150_737
*8503 FILLER_150_749
*8504 FILLER_150_755
*8505 FILLER_150_757
*8506 FILLER_150_769
*8507 FILLER_150_77
*8508 FILLER_150_781
*8509 FILLER_150_793
*8510 FILLER_150_805
*8511 FILLER_150_811
*8512 FILLER_150_813
*8513 FILLER_150_825
*8514 FILLER_150_83
*8515 FILLER_150_837
*8516 FILLER_150_849
*8517 FILLER_150_85
*8518 FILLER_150_861
*8519 FILLER_150_867
*8520 FILLER_150_869
*8521 FILLER_150_881
*8522 FILLER_150_893
*8523 FILLER_150_905
*8524 FILLER_150_917
*8525 FILLER_150_923
*8526 FILLER_150_925
*8527 FILLER_150_937
*8528 FILLER_150_949
*8529 FILLER_150_961
*8530 FILLER_150_97
*8531 FILLER_150_973
*8532 FILLER_150_979
*8533 FILLER_150_981
*8534 FILLER_150_993
*8535 FILLER_151_1001
*8536 FILLER_151_1007
*8537 FILLER_151_1009
*8538 FILLER_151_1021
*8539 FILLER_151_1033
*8540 FILLER_151_1045
*8541 FILLER_151_105
*8542 FILLER_151_1057
*8543 FILLER_151_1063
*8544 FILLER_151_1065
*8545 FILLER_151_1077
*8546 FILLER_151_1089
*8547 FILLER_151_1101
*8548 FILLER_151_111
*8549 FILLER_151_1113
*8550 FILLER_151_1119
*8551 FILLER_151_1121
*8552 FILLER_151_113
*8553 FILLER_151_1133
*8554 FILLER_151_1145
*8555 FILLER_151_1157
*8556 FILLER_151_1169
*8557 FILLER_151_1175
*8558 FILLER_151_1177
*8559 FILLER_151_1189
*8560 FILLER_151_1201
*8561 FILLER_151_1213
*8562 FILLER_151_1225
*8563 FILLER_151_1231
*8564 FILLER_151_1233
*8565 FILLER_151_1245
*8566 FILLER_151_125
*8567 FILLER_151_1257
*8568 FILLER_151_1263
*8569 FILLER_151_1267
*8570 FILLER_151_1276
*8571 FILLER_151_137
*8572 FILLER_151_149
*8573 FILLER_151_161
*8574 FILLER_151_167
*8575 FILLER_151_169
*8576 FILLER_151_181
*8577 FILLER_151_19
*8578 FILLER_151_193
*8579 FILLER_151_205
*8580 FILLER_151_217
*8581 FILLER_151_223
*8582 FILLER_151_225
*8583 FILLER_151_237
*8584 FILLER_151_249
*8585 FILLER_151_261
*8586 FILLER_151_273
*8587 FILLER_151_279
*8588 FILLER_151_281
*8589 FILLER_151_293
*8590 FILLER_151_3
*8591 FILLER_151_305
*8592 FILLER_151_31
*8593 FILLER_151_317
*8594 FILLER_151_329
*8595 FILLER_151_335
*8596 FILLER_151_337
*8597 FILLER_151_349
*8598 FILLER_151_361
*8599 FILLER_151_373
*8600 FILLER_151_385
*8601 FILLER_151_391
*8602 FILLER_151_393
*8603 FILLER_151_405
*8604 FILLER_151_417
*8605 FILLER_151_429
*8606 FILLER_151_43
*8607 FILLER_151_441
*8608 FILLER_151_447
*8609 FILLER_151_449
*8610 FILLER_151_461
*8611 FILLER_151_473
*8612 FILLER_151_485
*8613 FILLER_151_497
*8614 FILLER_151_503
*8615 FILLER_151_505
*8616 FILLER_151_517
*8617 FILLER_151_529
*8618 FILLER_151_541
*8619 FILLER_151_55
*8620 FILLER_151_553
*8621 FILLER_151_559
*8622 FILLER_151_561
*8623 FILLER_151_57
*8624 FILLER_151_573
*8625 FILLER_151_585
*8626 FILLER_151_597
*8627 FILLER_151_609
*8628 FILLER_151_615
*8629 FILLER_151_617
*8630 FILLER_151_629
*8631 FILLER_151_641
*8632 FILLER_151_653
*8633 FILLER_151_665
*8634 FILLER_151_671
*8635 FILLER_151_673
*8636 FILLER_151_685
*8637 FILLER_151_69
*8638 FILLER_151_697
*8639 FILLER_151_7
*8640 FILLER_151_709
*8641 FILLER_151_721
*8642 FILLER_151_727
*8643 FILLER_151_729
*8644 FILLER_151_741
*8645 FILLER_151_753
*8646 FILLER_151_765
*8647 FILLER_151_777
*8648 FILLER_151_783
*8649 FILLER_151_785
*8650 FILLER_151_797
*8651 FILLER_151_809
*8652 FILLER_151_81
*8653 FILLER_151_821
*8654 FILLER_151_833
*8655 FILLER_151_839
*8656 FILLER_151_841
*8657 FILLER_151_853
*8658 FILLER_151_865
*8659 FILLER_151_877
*8660 FILLER_151_889
*8661 FILLER_151_895
*8662 FILLER_151_897
*8663 FILLER_151_909
*8664 FILLER_151_921
*8665 FILLER_151_93
*8666 FILLER_151_933
*8667 FILLER_151_945
*8668 FILLER_151_951
*8669 FILLER_151_953
*8670 FILLER_151_965
*8671 FILLER_151_977
*8672 FILLER_151_989
*8673 FILLER_152_1005
*8674 FILLER_152_1017
*8675 FILLER_152_1029
*8676 FILLER_152_1035
*8677 FILLER_152_1037
*8678 FILLER_152_1049
*8679 FILLER_152_1061
*8680 FILLER_152_1073
*8681 FILLER_152_1085
*8682 FILLER_152_109
*8683 FILLER_152_1091
*8684 FILLER_152_1093
*8685 FILLER_152_1105
*8686 FILLER_152_1117
*8687 FILLER_152_1129
*8688 FILLER_152_1141
*8689 FILLER_152_1147
*8690 FILLER_152_1149
*8691 FILLER_152_1161
*8692 FILLER_152_1173
*8693 FILLER_152_1185
*8694 FILLER_152_1197
*8695 FILLER_152_1203
*8696 FILLER_152_1205
*8697 FILLER_152_121
*8698 FILLER_152_1217
*8699 FILLER_152_1229
*8700 FILLER_152_1241
*8701 FILLER_152_1253
*8702 FILLER_152_1259
*8703 FILLER_152_1261
*8704 FILLER_152_1276
*8705 FILLER_152_133
*8706 FILLER_152_139
*8707 FILLER_152_141
*8708 FILLER_152_153
*8709 FILLER_152_165
*8710 FILLER_152_177
*8711 FILLER_152_189
*8712 FILLER_152_19
*8713 FILLER_152_195
*8714 FILLER_152_197
*8715 FILLER_152_209
*8716 FILLER_152_221
*8717 FILLER_152_233
*8718 FILLER_152_245
*8719 FILLER_152_251
*8720 FILLER_152_253
*8721 FILLER_152_265
*8722 FILLER_152_27
*8723 FILLER_152_277
*8724 FILLER_152_289
*8725 FILLER_152_29
*8726 FILLER_152_3
*8727 FILLER_152_301
*8728 FILLER_152_307
*8729 FILLER_152_309
*8730 FILLER_152_321
*8731 FILLER_152_333
*8732 FILLER_152_345
*8733 FILLER_152_357
*8734 FILLER_152_363
*8735 FILLER_152_365
*8736 FILLER_152_377
*8737 FILLER_152_389
*8738 FILLER_152_401
*8739 FILLER_152_41
*8740 FILLER_152_413
*8741 FILLER_152_419
*8742 FILLER_152_421
*8743 FILLER_152_433
*8744 FILLER_152_445
*8745 FILLER_152_457
*8746 FILLER_152_469
*8747 FILLER_152_475
*8748 FILLER_152_477
*8749 FILLER_152_489
*8750 FILLER_152_501
*8751 FILLER_152_513
*8752 FILLER_152_525
*8753 FILLER_152_53
*8754 FILLER_152_531
*8755 FILLER_152_533
*8756 FILLER_152_545
*8757 FILLER_152_557
*8758 FILLER_152_569
*8759 FILLER_152_581
*8760 FILLER_152_587
*8761 FILLER_152_589
*8762 FILLER_152_601
*8763 FILLER_152_613
*8764 FILLER_152_625
*8765 FILLER_152_637
*8766 FILLER_152_643
*8767 FILLER_152_645
*8768 FILLER_152_65
*8769 FILLER_152_657
*8770 FILLER_152_669
*8771 FILLER_152_681
*8772 FILLER_152_693
*8773 FILLER_152_699
*8774 FILLER_152_7
*8775 FILLER_152_701
*8776 FILLER_152_713
*8777 FILLER_152_725
*8778 FILLER_152_737
*8779 FILLER_152_749
*8780 FILLER_152_755
*8781 FILLER_152_757
*8782 FILLER_152_769
*8783 FILLER_152_77
*8784 FILLER_152_781
*8785 FILLER_152_793
*8786 FILLER_152_805
*8787 FILLER_152_811
*8788 FILLER_152_813
*8789 FILLER_152_825
*8790 FILLER_152_83
*8791 FILLER_152_837
*8792 FILLER_152_849
*8793 FILLER_152_85
*8794 FILLER_152_861
*8795 FILLER_152_867
*8796 FILLER_152_869
*8797 FILLER_152_881
*8798 FILLER_152_893
*8799 FILLER_152_905
*8800 FILLER_152_917
*8801 FILLER_152_923
*8802 FILLER_152_925
*8803 FILLER_152_937
*8804 FILLER_152_949
*8805 FILLER_152_961
*8806 FILLER_152_97
*8807 FILLER_152_973
*8808 FILLER_152_979
*8809 FILLER_152_981
*8810 FILLER_152_993
*8811 FILLER_153_1001
*8812 FILLER_153_1007
*8813 FILLER_153_1009
*8814 FILLER_153_1021
*8815 FILLER_153_1033
*8816 FILLER_153_1045
*8817 FILLER_153_105
*8818 FILLER_153_1057
*8819 FILLER_153_1063
*8820 FILLER_153_1065
*8821 FILLER_153_1077
*8822 FILLER_153_1089
*8823 FILLER_153_1101
*8824 FILLER_153_111
*8825 FILLER_153_1113
*8826 FILLER_153_1119
*8827 FILLER_153_1121
*8828 FILLER_153_113
*8829 FILLER_153_1133
*8830 FILLER_153_1145
*8831 FILLER_153_1157
*8832 FILLER_153_1169
*8833 FILLER_153_1175
*8834 FILLER_153_1177
*8835 FILLER_153_1189
*8836 FILLER_153_1201
*8837 FILLER_153_1213
*8838 FILLER_153_1225
*8839 FILLER_153_1231
*8840 FILLER_153_1233
*8841 FILLER_153_1245
*8842 FILLER_153_125
*8843 FILLER_153_1257
*8844 FILLER_153_1269
*8845 FILLER_153_137
*8846 FILLER_153_149
*8847 FILLER_153_15
*8848 FILLER_153_161
*8849 FILLER_153_167
*8850 FILLER_153_169
*8851 FILLER_153_181
*8852 FILLER_153_193
*8853 FILLER_153_205
*8854 FILLER_153_217
*8855 FILLER_153_223
*8856 FILLER_153_225
*8857 FILLER_153_237
*8858 FILLER_153_249
*8859 FILLER_153_261
*8860 FILLER_153_27
*8861 FILLER_153_273
*8862 FILLER_153_279
*8863 FILLER_153_281
*8864 FILLER_153_293
*8865 FILLER_153_3
*8866 FILLER_153_305
*8867 FILLER_153_317
*8868 FILLER_153_329
*8869 FILLER_153_335
*8870 FILLER_153_337
*8871 FILLER_153_349
*8872 FILLER_153_361
*8873 FILLER_153_373
*8874 FILLER_153_385
*8875 FILLER_153_39
*8876 FILLER_153_391
*8877 FILLER_153_393
*8878 FILLER_153_405
*8879 FILLER_153_417
*8880 FILLER_153_429
*8881 FILLER_153_441
*8882 FILLER_153_447
*8883 FILLER_153_449
*8884 FILLER_153_461
*8885 FILLER_153_473
*8886 FILLER_153_485
*8887 FILLER_153_497
*8888 FILLER_153_503
*8889 FILLER_153_505
*8890 FILLER_153_51
*8891 FILLER_153_517
*8892 FILLER_153_529
*8893 FILLER_153_541
*8894 FILLER_153_55
*8895 FILLER_153_553
*8896 FILLER_153_559
*8897 FILLER_153_561
*8898 FILLER_153_57
*8899 FILLER_153_573
*8900 FILLER_153_585
*8901 FILLER_153_597
*8902 FILLER_153_609
*8903 FILLER_153_615
*8904 FILLER_153_617
*8905 FILLER_153_629
*8906 FILLER_153_641
*8907 FILLER_153_653
*8908 FILLER_153_665
*8909 FILLER_153_671
*8910 FILLER_153_673
*8911 FILLER_153_685
*8912 FILLER_153_69
*8913 FILLER_153_697
*8914 FILLER_153_709
*8915 FILLER_153_721
*8916 FILLER_153_727
*8917 FILLER_153_729
*8918 FILLER_153_741
*8919 FILLER_153_753
*8920 FILLER_153_765
*8921 FILLER_153_777
*8922 FILLER_153_783
*8923 FILLER_153_785
*8924 FILLER_153_797
*8925 FILLER_153_809
*8926 FILLER_153_81
*8927 FILLER_153_821
*8928 FILLER_153_833
*8929 FILLER_153_839
*8930 FILLER_153_841
*8931 FILLER_153_853
*8932 FILLER_153_865
*8933 FILLER_153_877
*8934 FILLER_153_889
*8935 FILLER_153_895
*8936 FILLER_153_897
*8937 FILLER_153_909
*8938 FILLER_153_921
*8939 FILLER_153_93
*8940 FILLER_153_933
*8941 FILLER_153_945
*8942 FILLER_153_951
*8943 FILLER_153_953
*8944 FILLER_153_965
*8945 FILLER_153_977
*8946 FILLER_153_989
*8947 FILLER_154_1005
*8948 FILLER_154_1017
*8949 FILLER_154_1029
*8950 FILLER_154_1035
*8951 FILLER_154_1037
*8952 FILLER_154_1049
*8953 FILLER_154_1061
*8954 FILLER_154_1073
*8955 FILLER_154_1085
*8956 FILLER_154_109
*8957 FILLER_154_1091
*8958 FILLER_154_1093
*8959 FILLER_154_1105
*8960 FILLER_154_1117
*8961 FILLER_154_1129
*8962 FILLER_154_1141
*8963 FILLER_154_1147
*8964 FILLER_154_1149
*8965 FILLER_154_1161
*8966 FILLER_154_1173
*8967 FILLER_154_1185
*8968 FILLER_154_1197
*8969 FILLER_154_1203
*8970 FILLER_154_1205
*8971 FILLER_154_121
*8972 FILLER_154_1217
*8973 FILLER_154_1229
*8974 FILLER_154_1241
*8975 FILLER_154_1253
*8976 FILLER_154_1259
*8977 FILLER_154_1261
*8978 FILLER_154_1276
*8979 FILLER_154_133
*8980 FILLER_154_139
*8981 FILLER_154_141
*8982 FILLER_154_153
*8983 FILLER_154_165
*8984 FILLER_154_177
*8985 FILLER_154_189
*8986 FILLER_154_19
*8987 FILLER_154_195
*8988 FILLER_154_197
*8989 FILLER_154_209
*8990 FILLER_154_221
*8991 FILLER_154_233
*8992 FILLER_154_245
*8993 FILLER_154_251
*8994 FILLER_154_253
*8995 FILLER_154_265
*8996 FILLER_154_27
*8997 FILLER_154_277
*8998 FILLER_154_289
*8999 FILLER_154_29
*9000 FILLER_154_3
*9001 FILLER_154_301
*9002 FILLER_154_307
*9003 FILLER_154_309
*9004 FILLER_154_321
*9005 FILLER_154_333
*9006 FILLER_154_345
*9007 FILLER_154_357
*9008 FILLER_154_363
*9009 FILLER_154_365
*9010 FILLER_154_377
*9011 FILLER_154_389
*9012 FILLER_154_401
*9013 FILLER_154_41
*9014 FILLER_154_413
*9015 FILLER_154_419
*9016 FILLER_154_421
*9017 FILLER_154_433
*9018 FILLER_154_445
*9019 FILLER_154_457
*9020 FILLER_154_469
*9021 FILLER_154_475
*9022 FILLER_154_477
*9023 FILLER_154_489
*9024 FILLER_154_501
*9025 FILLER_154_513
*9026 FILLER_154_525
*9027 FILLER_154_53
*9028 FILLER_154_531
*9029 FILLER_154_533
*9030 FILLER_154_545
*9031 FILLER_154_557
*9032 FILLER_154_569
*9033 FILLER_154_581
*9034 FILLER_154_587
*9035 FILLER_154_589
*9036 FILLER_154_601
*9037 FILLER_154_613
*9038 FILLER_154_625
*9039 FILLER_154_637
*9040 FILLER_154_643
*9041 FILLER_154_645
*9042 FILLER_154_65
*9043 FILLER_154_657
*9044 FILLER_154_669
*9045 FILLER_154_681
*9046 FILLER_154_693
*9047 FILLER_154_699
*9048 FILLER_154_7
*9049 FILLER_154_701
*9050 FILLER_154_713
*9051 FILLER_154_725
*9052 FILLER_154_737
*9053 FILLER_154_749
*9054 FILLER_154_755
*9055 FILLER_154_757
*9056 FILLER_154_769
*9057 FILLER_154_77
*9058 FILLER_154_781
*9059 FILLER_154_793
*9060 FILLER_154_805
*9061 FILLER_154_811
*9062 FILLER_154_813
*9063 FILLER_154_825
*9064 FILLER_154_83
*9065 FILLER_154_837
*9066 FILLER_154_849
*9067 FILLER_154_85
*9068 FILLER_154_861
*9069 FILLER_154_867
*9070 FILLER_154_869
*9071 FILLER_154_881
*9072 FILLER_154_893
*9073 FILLER_154_905
*9074 FILLER_154_917
*9075 FILLER_154_923
*9076 FILLER_154_925
*9077 FILLER_154_937
*9078 FILLER_154_949
*9079 FILLER_154_961
*9080 FILLER_154_97
*9081 FILLER_154_973
*9082 FILLER_154_979
*9083 FILLER_154_981
*9084 FILLER_154_993
*9085 FILLER_155_1001
*9086 FILLER_155_1007
*9087 FILLER_155_1009
*9088 FILLER_155_1021
*9089 FILLER_155_1033
*9090 FILLER_155_1045
*9091 FILLER_155_105
*9092 FILLER_155_1057
*9093 FILLER_155_1063
*9094 FILLER_155_1065
*9095 FILLER_155_1077
*9096 FILLER_155_1089
*9097 FILLER_155_1101
*9098 FILLER_155_111
*9099 FILLER_155_1113
*9100 FILLER_155_1119
*9101 FILLER_155_1121
*9102 FILLER_155_113
*9103 FILLER_155_1133
*9104 FILLER_155_1145
*9105 FILLER_155_1157
*9106 FILLER_155_1169
*9107 FILLER_155_1175
*9108 FILLER_155_1177
*9109 FILLER_155_1189
*9110 FILLER_155_1201
*9111 FILLER_155_1213
*9112 FILLER_155_1225
*9113 FILLER_155_1231
*9114 FILLER_155_1233
*9115 FILLER_155_1245
*9116 FILLER_155_125
*9117 FILLER_155_1257
*9118 FILLER_155_1269
*9119 FILLER_155_137
*9120 FILLER_155_149
*9121 FILLER_155_15
*9122 FILLER_155_161
*9123 FILLER_155_167
*9124 FILLER_155_169
*9125 FILLER_155_181
*9126 FILLER_155_193
*9127 FILLER_155_205
*9128 FILLER_155_217
*9129 FILLER_155_223
*9130 FILLER_155_225
*9131 FILLER_155_237
*9132 FILLER_155_249
*9133 FILLER_155_261
*9134 FILLER_155_27
*9135 FILLER_155_273
*9136 FILLER_155_279
*9137 FILLER_155_281
*9138 FILLER_155_293
*9139 FILLER_155_3
*9140 FILLER_155_305
*9141 FILLER_155_317
*9142 FILLER_155_329
*9143 FILLER_155_335
*9144 FILLER_155_337
*9145 FILLER_155_349
*9146 FILLER_155_361
*9147 FILLER_155_373
*9148 FILLER_155_385
*9149 FILLER_155_39
*9150 FILLER_155_391
*9151 FILLER_155_393
*9152 FILLER_155_405
*9153 FILLER_155_417
*9154 FILLER_155_429
*9155 FILLER_155_441
*9156 FILLER_155_447
*9157 FILLER_155_449
*9158 FILLER_155_461
*9159 FILLER_155_473
*9160 FILLER_155_485
*9161 FILLER_155_497
*9162 FILLER_155_503
*9163 FILLER_155_505
*9164 FILLER_155_51
*9165 FILLER_155_517
*9166 FILLER_155_529
*9167 FILLER_155_541
*9168 FILLER_155_55
*9169 FILLER_155_553
*9170 FILLER_155_559
*9171 FILLER_155_561
*9172 FILLER_155_57
*9173 FILLER_155_573
*9174 FILLER_155_585
*9175 FILLER_155_597
*9176 FILLER_155_609
*9177 FILLER_155_615
*9178 FILLER_155_617
*9179 FILLER_155_629
*9180 FILLER_155_641
*9181 FILLER_155_653
*9182 FILLER_155_665
*9183 FILLER_155_671
*9184 FILLER_155_673
*9185 FILLER_155_685
*9186 FILLER_155_69
*9187 FILLER_155_697
*9188 FILLER_155_709
*9189 FILLER_155_721
*9190 FILLER_155_727
*9191 FILLER_155_729
*9192 FILLER_155_741
*9193 FILLER_155_753
*9194 FILLER_155_765
*9195 FILLER_155_777
*9196 FILLER_155_783
*9197 FILLER_155_785
*9198 FILLER_155_797
*9199 FILLER_155_809
*9200 FILLER_155_81
*9201 FILLER_155_821
*9202 FILLER_155_833
*9203 FILLER_155_839
*9204 FILLER_155_841
*9205 FILLER_155_853
*9206 FILLER_155_865
*9207 FILLER_155_877
*9208 FILLER_155_889
*9209 FILLER_155_895
*9210 FILLER_155_897
*9211 FILLER_155_909
*9212 FILLER_155_921
*9213 FILLER_155_93
*9214 FILLER_155_933
*9215 FILLER_155_945
*9216 FILLER_155_951
*9217 FILLER_155_953
*9218 FILLER_155_965
*9219 FILLER_155_977
*9220 FILLER_155_989
*9221 FILLER_156_1005
*9222 FILLER_156_1017
*9223 FILLER_156_1029
*9224 FILLER_156_1035
*9225 FILLER_156_1037
*9226 FILLER_156_1049
*9227 FILLER_156_1061
*9228 FILLER_156_1073
*9229 FILLER_156_1085
*9230 FILLER_156_109
*9231 FILLER_156_1091
*9232 FILLER_156_1093
*9233 FILLER_156_1105
*9234 FILLER_156_1117
*9235 FILLER_156_1129
*9236 FILLER_156_1141
*9237 FILLER_156_1147
*9238 FILLER_156_1149
*9239 FILLER_156_1161
*9240 FILLER_156_1173
*9241 FILLER_156_1185
*9242 FILLER_156_1197
*9243 FILLER_156_1203
*9244 FILLER_156_1205
*9245 FILLER_156_121
*9246 FILLER_156_1217
*9247 FILLER_156_1229
*9248 FILLER_156_1241
*9249 FILLER_156_1253
*9250 FILLER_156_1259
*9251 FILLER_156_1261
*9252 FILLER_156_1273
*9253 FILLER_156_133
*9254 FILLER_156_139
*9255 FILLER_156_141
*9256 FILLER_156_153
*9257 FILLER_156_165
*9258 FILLER_156_177
*9259 FILLER_156_189
*9260 FILLER_156_19
*9261 FILLER_156_195
*9262 FILLER_156_197
*9263 FILLER_156_209
*9264 FILLER_156_221
*9265 FILLER_156_233
*9266 FILLER_156_245
*9267 FILLER_156_251
*9268 FILLER_156_253
*9269 FILLER_156_265
*9270 FILLER_156_27
*9271 FILLER_156_277
*9272 FILLER_156_289
*9273 FILLER_156_29
*9274 FILLER_156_3
*9275 FILLER_156_301
*9276 FILLER_156_307
*9277 FILLER_156_309
*9278 FILLER_156_321
*9279 FILLER_156_333
*9280 FILLER_156_345
*9281 FILLER_156_357
*9282 FILLER_156_363
*9283 FILLER_156_365
*9284 FILLER_156_377
*9285 FILLER_156_389
*9286 FILLER_156_401
*9287 FILLER_156_41
*9288 FILLER_156_413
*9289 FILLER_156_419
*9290 FILLER_156_421
*9291 FILLER_156_433
*9292 FILLER_156_445
*9293 FILLER_156_457
*9294 FILLER_156_469
*9295 FILLER_156_475
*9296 FILLER_156_477
*9297 FILLER_156_489
*9298 FILLER_156_501
*9299 FILLER_156_513
*9300 FILLER_156_525
*9301 FILLER_156_53
*9302 FILLER_156_531
*9303 FILLER_156_533
*9304 FILLER_156_545
*9305 FILLER_156_557
*9306 FILLER_156_569
*9307 FILLER_156_581
*9308 FILLER_156_587
*9309 FILLER_156_589
*9310 FILLER_156_601
*9311 FILLER_156_613
*9312 FILLER_156_625
*9313 FILLER_156_637
*9314 FILLER_156_643
*9315 FILLER_156_645
*9316 FILLER_156_65
*9317 FILLER_156_657
*9318 FILLER_156_669
*9319 FILLER_156_681
*9320 FILLER_156_693
*9321 FILLER_156_699
*9322 FILLER_156_7
*9323 FILLER_156_701
*9324 FILLER_156_713
*9325 FILLER_156_725
*9326 FILLER_156_737
*9327 FILLER_156_749
*9328 FILLER_156_755
*9329 FILLER_156_757
*9330 FILLER_156_769
*9331 FILLER_156_77
*9332 FILLER_156_781
*9333 FILLER_156_793
*9334 FILLER_156_805
*9335 FILLER_156_811
*9336 FILLER_156_813
*9337 FILLER_156_825
*9338 FILLER_156_83
*9339 FILLER_156_837
*9340 FILLER_156_849
*9341 FILLER_156_85
*9342 FILLER_156_861
*9343 FILLER_156_867
*9344 FILLER_156_869
*9345 FILLER_156_881
*9346 FILLER_156_893
*9347 FILLER_156_905
*9348 FILLER_156_917
*9349 FILLER_156_923
*9350 FILLER_156_925
*9351 FILLER_156_937
*9352 FILLER_156_949
*9353 FILLER_156_961
*9354 FILLER_156_97
*9355 FILLER_156_973
*9356 FILLER_156_979
*9357 FILLER_156_981
*9358 FILLER_156_993
*9359 FILLER_157_1001
*9360 FILLER_157_1007
*9361 FILLER_157_1009
*9362 FILLER_157_1021
*9363 FILLER_157_1033
*9364 FILLER_157_1045
*9365 FILLER_157_105
*9366 FILLER_157_1057
*9367 FILLER_157_1063
*9368 FILLER_157_1065
*9369 FILLER_157_1077
*9370 FILLER_157_1089
*9371 FILLER_157_1101
*9372 FILLER_157_111
*9373 FILLER_157_1113
*9374 FILLER_157_1119
*9375 FILLER_157_1121
*9376 FILLER_157_113
*9377 FILLER_157_1133
*9378 FILLER_157_1145
*9379 FILLER_157_1157
*9380 FILLER_157_1169
*9381 FILLER_157_1175
*9382 FILLER_157_1177
*9383 FILLER_157_1189
*9384 FILLER_157_1201
*9385 FILLER_157_1213
*9386 FILLER_157_1225
*9387 FILLER_157_1231
*9388 FILLER_157_1233
*9389 FILLER_157_1245
*9390 FILLER_157_125
*9391 FILLER_157_1257
*9392 FILLER_157_1269
*9393 FILLER_157_137
*9394 FILLER_157_149
*9395 FILLER_157_161
*9396 FILLER_157_167
*9397 FILLER_157_169
*9398 FILLER_157_181
*9399 FILLER_157_19
*9400 FILLER_157_193
*9401 FILLER_157_205
*9402 FILLER_157_217
*9403 FILLER_157_223
*9404 FILLER_157_225
*9405 FILLER_157_237
*9406 FILLER_157_249
*9407 FILLER_157_261
*9408 FILLER_157_273
*9409 FILLER_157_279
*9410 FILLER_157_281
*9411 FILLER_157_293
*9412 FILLER_157_3
*9413 FILLER_157_305
*9414 FILLER_157_31
*9415 FILLER_157_317
*9416 FILLER_157_329
*9417 FILLER_157_335
*9418 FILLER_157_337
*9419 FILLER_157_349
*9420 FILLER_157_361
*9421 FILLER_157_373
*9422 FILLER_157_385
*9423 FILLER_157_391
*9424 FILLER_157_393
*9425 FILLER_157_405
*9426 FILLER_157_417
*9427 FILLER_157_429
*9428 FILLER_157_43
*9429 FILLER_157_441
*9430 FILLER_157_447
*9431 FILLER_157_449
*9432 FILLER_157_461
*9433 FILLER_157_473
*9434 FILLER_157_485
*9435 FILLER_157_497
*9436 FILLER_157_503
*9437 FILLER_157_505
*9438 FILLER_157_517
*9439 FILLER_157_529
*9440 FILLER_157_541
*9441 FILLER_157_55
*9442 FILLER_157_553
*9443 FILLER_157_559
*9444 FILLER_157_561
*9445 FILLER_157_57
*9446 FILLER_157_573
*9447 FILLER_157_585
*9448 FILLER_157_597
*9449 FILLER_157_609
*9450 FILLER_157_615
*9451 FILLER_157_617
*9452 FILLER_157_629
*9453 FILLER_157_641
*9454 FILLER_157_653
*9455 FILLER_157_665
*9456 FILLER_157_671
*9457 FILLER_157_673
*9458 FILLER_157_685
*9459 FILLER_157_69
*9460 FILLER_157_697
*9461 FILLER_157_7
*9462 FILLER_157_709
*9463 FILLER_157_721
*9464 FILLER_157_727
*9465 FILLER_157_729
*9466 FILLER_157_741
*9467 FILLER_157_753
*9468 FILLER_157_765
*9469 FILLER_157_777
*9470 FILLER_157_783
*9471 FILLER_157_785
*9472 FILLER_157_797
*9473 FILLER_157_809
*9474 FILLER_157_81
*9475 FILLER_157_821
*9476 FILLER_157_833
*9477 FILLER_157_839
*9478 FILLER_157_841
*9479 FILLER_157_853
*9480 FILLER_157_865
*9481 FILLER_157_877
*9482 FILLER_157_889
*9483 FILLER_157_895
*9484 FILLER_157_897
*9485 FILLER_157_909
*9486 FILLER_157_921
*9487 FILLER_157_93
*9488 FILLER_157_933
*9489 FILLER_157_945
*9490 FILLER_157_951
*9491 FILLER_157_953
*9492 FILLER_157_965
*9493 FILLER_157_977
*9494 FILLER_157_989
*9495 FILLER_158_1005
*9496 FILLER_158_1017
*9497 FILLER_158_1029
*9498 FILLER_158_1035
*9499 FILLER_158_1037
*9500 FILLER_158_1049
*9501 FILLER_158_1061
*9502 FILLER_158_1073
*9503 FILLER_158_1085
*9504 FILLER_158_109
*9505 FILLER_158_1091
*9506 FILLER_158_1093
*9507 FILLER_158_1105
*9508 FILLER_158_1117
*9509 FILLER_158_1129
*9510 FILLER_158_1141
*9511 FILLER_158_1147
*9512 FILLER_158_1149
*9513 FILLER_158_1161
*9514 FILLER_158_1173
*9515 FILLER_158_1185
*9516 FILLER_158_1197
*9517 FILLER_158_1203
*9518 FILLER_158_1205
*9519 FILLER_158_121
*9520 FILLER_158_1217
*9521 FILLER_158_1229
*9522 FILLER_158_1241
*9523 FILLER_158_1253
*9524 FILLER_158_1259
*9525 FILLER_158_1261
*9526 FILLER_158_1273
*9527 FILLER_158_133
*9528 FILLER_158_139
*9529 FILLER_158_141
*9530 FILLER_158_15
*9531 FILLER_158_153
*9532 FILLER_158_165
*9533 FILLER_158_177
*9534 FILLER_158_189
*9535 FILLER_158_195
*9536 FILLER_158_197
*9537 FILLER_158_209
*9538 FILLER_158_221
*9539 FILLER_158_233
*9540 FILLER_158_245
*9541 FILLER_158_251
*9542 FILLER_158_253
*9543 FILLER_158_265
*9544 FILLER_158_27
*9545 FILLER_158_277
*9546 FILLER_158_289
*9547 FILLER_158_29
*9548 FILLER_158_3
*9549 FILLER_158_301
*9550 FILLER_158_307
*9551 FILLER_158_309
*9552 FILLER_158_321
*9553 FILLER_158_333
*9554 FILLER_158_345
*9555 FILLER_158_357
*9556 FILLER_158_363
*9557 FILLER_158_365
*9558 FILLER_158_377
*9559 FILLER_158_389
*9560 FILLER_158_401
*9561 FILLER_158_41
*9562 FILLER_158_413
*9563 FILLER_158_419
*9564 FILLER_158_421
*9565 FILLER_158_433
*9566 FILLER_158_445
*9567 FILLER_158_457
*9568 FILLER_158_469
*9569 FILLER_158_475
*9570 FILLER_158_477
*9571 FILLER_158_489
*9572 FILLER_158_501
*9573 FILLER_158_513
*9574 FILLER_158_525
*9575 FILLER_158_53
*9576 FILLER_158_531
*9577 FILLER_158_533
*9578 FILLER_158_545
*9579 FILLER_158_557
*9580 FILLER_158_569
*9581 FILLER_158_581
*9582 FILLER_158_587
*9583 FILLER_158_589
*9584 FILLER_158_601
*9585 FILLER_158_613
*9586 FILLER_158_625
*9587 FILLER_158_637
*9588 FILLER_158_643
*9589 FILLER_158_645
*9590 FILLER_158_65
*9591 FILLER_158_657
*9592 FILLER_158_669
*9593 FILLER_158_681
*9594 FILLER_158_693
*9595 FILLER_158_699
*9596 FILLER_158_701
*9597 FILLER_158_713
*9598 FILLER_158_725
*9599 FILLER_158_737
*9600 FILLER_158_749
*9601 FILLER_158_755
*9602 FILLER_158_757
*9603 FILLER_158_769
*9604 FILLER_158_77
*9605 FILLER_158_781
*9606 FILLER_158_793
*9607 FILLER_158_805
*9608 FILLER_158_811
*9609 FILLER_158_813
*9610 FILLER_158_825
*9611 FILLER_158_83
*9612 FILLER_158_837
*9613 FILLER_158_849
*9614 FILLER_158_85
*9615 FILLER_158_861
*9616 FILLER_158_867
*9617 FILLER_158_869
*9618 FILLER_158_881
*9619 FILLER_158_893
*9620 FILLER_158_905
*9621 FILLER_158_917
*9622 FILLER_158_923
*9623 FILLER_158_925
*9624 FILLER_158_937
*9625 FILLER_158_949
*9626 FILLER_158_961
*9627 FILLER_158_97
*9628 FILLER_158_973
*9629 FILLER_158_979
*9630 FILLER_158_981
*9631 FILLER_158_993
*9632 FILLER_159_1001
*9633 FILLER_159_1007
*9634 FILLER_159_1009
*9635 FILLER_159_1021
*9636 FILLER_159_1033
*9637 FILLER_159_1045
*9638 FILLER_159_105
*9639 FILLER_159_1057
*9640 FILLER_159_1063
*9641 FILLER_159_1065
*9642 FILLER_159_1077
*9643 FILLER_159_1089
*9644 FILLER_159_1101
*9645 FILLER_159_111
*9646 FILLER_159_1113
*9647 FILLER_159_1119
*9648 FILLER_159_1121
*9649 FILLER_159_113
*9650 FILLER_159_1133
*9651 FILLER_159_1145
*9652 FILLER_159_1157
*9653 FILLER_159_1169
*9654 FILLER_159_1175
*9655 FILLER_159_1177
*9656 FILLER_159_1189
*9657 FILLER_159_12
*9658 FILLER_159_1201
*9659 FILLER_159_1213
*9660 FILLER_159_1225
*9661 FILLER_159_1231
*9662 FILLER_159_1233
*9663 FILLER_159_1245
*9664 FILLER_159_125
*9665 FILLER_159_1257
*9666 FILLER_159_1269
*9667 FILLER_159_137
*9668 FILLER_159_149
*9669 FILLER_159_16
*9670 FILLER_159_161
*9671 FILLER_159_167
*9672 FILLER_159_169
*9673 FILLER_159_181
*9674 FILLER_159_193
*9675 FILLER_159_205
*9676 FILLER_159_217
*9677 FILLER_159_223
*9678 FILLER_159_225
*9679 FILLER_159_237
*9680 FILLER_159_249
*9681 FILLER_159_261
*9682 FILLER_159_273
*9683 FILLER_159_279
*9684 FILLER_159_28
*9685 FILLER_159_281
*9686 FILLER_159_293
*9687 FILLER_159_3
*9688 FILLER_159_305
*9689 FILLER_159_317
*9690 FILLER_159_329
*9691 FILLER_159_335
*9692 FILLER_159_337
*9693 FILLER_159_349
*9694 FILLER_159_361
*9695 FILLER_159_373
*9696 FILLER_159_385
*9697 FILLER_159_391
*9698 FILLER_159_393
*9699 FILLER_159_40
*9700 FILLER_159_405
*9701 FILLER_159_417
*9702 FILLER_159_429
*9703 FILLER_159_441
*9704 FILLER_159_447
*9705 FILLER_159_449
*9706 FILLER_159_461
*9707 FILLER_159_473
*9708 FILLER_159_485
*9709 FILLER_159_497
*9710 FILLER_159_503
*9711 FILLER_159_505
*9712 FILLER_159_517
*9713 FILLER_159_52
*9714 FILLER_159_529
*9715 FILLER_159_541
*9716 FILLER_159_553
*9717 FILLER_159_559
*9718 FILLER_159_561
*9719 FILLER_159_57
*9720 FILLER_159_573
*9721 FILLER_159_585
*9722 FILLER_159_597
*9723 FILLER_159_609
*9724 FILLER_159_615
*9725 FILLER_159_617
*9726 FILLER_159_629
*9727 FILLER_159_641
*9728 FILLER_159_653
*9729 FILLER_159_665
*9730 FILLER_159_671
*9731 FILLER_159_673
*9732 FILLER_159_685
*9733 FILLER_159_69
*9734 FILLER_159_697
*9735 FILLER_159_709
*9736 FILLER_159_721
*9737 FILLER_159_727
*9738 FILLER_159_729
*9739 FILLER_159_741
*9740 FILLER_159_753
*9741 FILLER_159_765
*9742 FILLER_159_777
*9743 FILLER_159_783
*9744 FILLER_159_785
*9745 FILLER_159_797
*9746 FILLER_159_8
*9747 FILLER_159_809
*9748 FILLER_159_81
*9749 FILLER_159_821
*9750 FILLER_159_833
*9751 FILLER_159_839
*9752 FILLER_159_841
*9753 FILLER_159_853
*9754 FILLER_159_865
*9755 FILLER_159_877
*9756 FILLER_159_889
*9757 FILLER_159_895
*9758 FILLER_159_897
*9759 FILLER_159_909
*9760 FILLER_159_921
*9761 FILLER_159_93
*9762 FILLER_159_933
*9763 FILLER_159_945
*9764 FILLER_159_951
*9765 FILLER_159_953
*9766 FILLER_159_965
*9767 FILLER_159_977
*9768 FILLER_159_989
*9769 FILLER_15_1001
*9770 FILLER_15_1007
*9771 FILLER_15_1009
*9772 FILLER_15_1021
*9773 FILLER_15_1033
*9774 FILLER_15_1045
*9775 FILLER_15_105
*9776 FILLER_15_1057
*9777 FILLER_15_1063
*9778 FILLER_15_1065
*9779 FILLER_15_1077
*9780 FILLER_15_1089
*9781 FILLER_15_1101
*9782 FILLER_15_111
*9783 FILLER_15_1113
*9784 FILLER_15_1119
*9785 FILLER_15_1121
*9786 FILLER_15_113
*9787 FILLER_15_1133
*9788 FILLER_15_1145
*9789 FILLER_15_1157
*9790 FILLER_15_1169
*9791 FILLER_15_1175
*9792 FILLER_15_1177
*9793 FILLER_15_1189
*9794 FILLER_15_1201
*9795 FILLER_15_1213
*9796 FILLER_15_1225
*9797 FILLER_15_1231
*9798 FILLER_15_1233
*9799 FILLER_15_1245
*9800 FILLER_15_125
*9801 FILLER_15_1257
*9802 FILLER_15_1269
*9803 FILLER_15_137
*9804 FILLER_15_149
*9805 FILLER_15_15
*9806 FILLER_15_161
*9807 FILLER_15_167
*9808 FILLER_15_169
*9809 FILLER_15_181
*9810 FILLER_15_193
*9811 FILLER_15_205
*9812 FILLER_15_217
*9813 FILLER_15_223
*9814 FILLER_15_225
*9815 FILLER_15_237
*9816 FILLER_15_249
*9817 FILLER_15_261
*9818 FILLER_15_27
*9819 FILLER_15_273
*9820 FILLER_15_279
*9821 FILLER_15_281
*9822 FILLER_15_293
*9823 FILLER_15_3
*9824 FILLER_15_305
*9825 FILLER_15_317
*9826 FILLER_15_329
*9827 FILLER_15_335
*9828 FILLER_15_337
*9829 FILLER_15_349
*9830 FILLER_15_361
*9831 FILLER_15_373
*9832 FILLER_15_385
*9833 FILLER_15_39
*9834 FILLER_15_391
*9835 FILLER_15_393
*9836 FILLER_15_405
*9837 FILLER_15_417
*9838 FILLER_15_429
*9839 FILLER_15_441
*9840 FILLER_15_447
*9841 FILLER_15_449
*9842 FILLER_15_461
*9843 FILLER_15_473
*9844 FILLER_15_485
*9845 FILLER_15_497
*9846 FILLER_15_503
*9847 FILLER_15_505
*9848 FILLER_15_51
*9849 FILLER_15_517
*9850 FILLER_15_529
*9851 FILLER_15_541
*9852 FILLER_15_55
*9853 FILLER_15_553
*9854 FILLER_15_559
*9855 FILLER_15_561
*9856 FILLER_15_57
*9857 FILLER_15_573
*9858 FILLER_15_585
*9859 FILLER_15_597
*9860 FILLER_15_609
*9861 FILLER_15_615
*9862 FILLER_15_617
*9863 FILLER_15_629
*9864 FILLER_15_641
*9865 FILLER_15_653
*9866 FILLER_15_665
*9867 FILLER_15_671
*9868 FILLER_15_673
*9869 FILLER_15_685
*9870 FILLER_15_69
*9871 FILLER_15_697
*9872 FILLER_15_709
*9873 FILLER_15_721
*9874 FILLER_15_727
*9875 FILLER_15_729
*9876 FILLER_15_741
*9877 FILLER_15_753
*9878 FILLER_15_765
*9879 FILLER_15_777
*9880 FILLER_15_783
*9881 FILLER_15_785
*9882 FILLER_15_797
*9883 FILLER_15_809
*9884 FILLER_15_81
*9885 FILLER_15_821
*9886 FILLER_15_833
*9887 FILLER_15_839
*9888 FILLER_15_841
*9889 FILLER_15_853
*9890 FILLER_15_865
*9891 FILLER_15_877
*9892 FILLER_15_889
*9893 FILLER_15_895
*9894 FILLER_15_897
*9895 FILLER_15_909
*9896 FILLER_15_921
*9897 FILLER_15_93
*9898 FILLER_15_933
*9899 FILLER_15_945
*9900 FILLER_15_951
*9901 FILLER_15_953
*9902 FILLER_15_965
*9903 FILLER_15_977
*9904 FILLER_15_989
*9905 FILLER_160_1005
*9906 FILLER_160_1017
*9907 FILLER_160_1029
*9908 FILLER_160_1035
*9909 FILLER_160_1037
*9910 FILLER_160_1049
*9911 FILLER_160_1061
*9912 FILLER_160_1073
*9913 FILLER_160_1085
*9914 FILLER_160_109
*9915 FILLER_160_1091
*9916 FILLER_160_1093
*9917 FILLER_160_1105
*9918 FILLER_160_1117
*9919 FILLER_160_1129
*9920 FILLER_160_1141
*9921 FILLER_160_1147
*9922 FILLER_160_1149
*9923 FILLER_160_1161
*9924 FILLER_160_1173
*9925 FILLER_160_1185
*9926 FILLER_160_1197
*9927 FILLER_160_1203
*9928 FILLER_160_1205
*9929 FILLER_160_121
*9930 FILLER_160_1217
*9931 FILLER_160_1229
*9932 FILLER_160_1241
*9933 FILLER_160_1253
*9934 FILLER_160_1259
*9935 FILLER_160_1261
*9936 FILLER_160_1273
*9937 FILLER_160_133
*9938 FILLER_160_139
*9939 FILLER_160_141
*9940 FILLER_160_153
*9941 FILLER_160_165
*9942 FILLER_160_177
*9943 FILLER_160_189
*9944 FILLER_160_19
*9945 FILLER_160_195
*9946 FILLER_160_197
*9947 FILLER_160_209
*9948 FILLER_160_221
*9949 FILLER_160_233
*9950 FILLER_160_245
*9951 FILLER_160_251
*9952 FILLER_160_253
*9953 FILLER_160_265
*9954 FILLER_160_27
*9955 FILLER_160_277
*9956 FILLER_160_289
*9957 FILLER_160_29
*9958 FILLER_160_3
*9959 FILLER_160_301
*9960 FILLER_160_307
*9961 FILLER_160_309
*9962 FILLER_160_321
*9963 FILLER_160_333
*9964 FILLER_160_345
*9965 FILLER_160_357
*9966 FILLER_160_363
*9967 FILLER_160_365
*9968 FILLER_160_377
*9969 FILLER_160_389
*9970 FILLER_160_401
*9971 FILLER_160_41
*9972 FILLER_160_413
*9973 FILLER_160_419
*9974 FILLER_160_421
*9975 FILLER_160_433
*9976 FILLER_160_445
*9977 FILLER_160_457
*9978 FILLER_160_469
*9979 FILLER_160_475
*9980 FILLER_160_477
*9981 FILLER_160_489
*9982 FILLER_160_501
*9983 FILLER_160_513
*9984 FILLER_160_525
*9985 FILLER_160_53
*9986 FILLER_160_531
*9987 FILLER_160_533
*9988 FILLER_160_545
*9989 FILLER_160_557
*9990 FILLER_160_569
*9991 FILLER_160_581
*9992 FILLER_160_587
*9993 FILLER_160_589
*9994 FILLER_160_601
*9995 FILLER_160_613
*9996 FILLER_160_625
*9997 FILLER_160_637
*9998 FILLER_160_643
*9999 FILLER_160_645
*10000 FILLER_160_65
*10001 FILLER_160_657
*10002 FILLER_160_669
*10003 FILLER_160_681
*10004 FILLER_160_693
*10005 FILLER_160_699
*10006 FILLER_160_7
*10007 FILLER_160_701
*10008 FILLER_160_713
*10009 FILLER_160_725
*10010 FILLER_160_737
*10011 FILLER_160_749
*10012 FILLER_160_755
*10013 FILLER_160_757
*10014 FILLER_160_769
*10015 FILLER_160_77
*10016 FILLER_160_781
*10017 FILLER_160_793
*10018 FILLER_160_805
*10019 FILLER_160_811
*10020 FILLER_160_813
*10021 FILLER_160_825
*10022 FILLER_160_83
*10023 FILLER_160_837
*10024 FILLER_160_849
*10025 FILLER_160_85
*10026 FILLER_160_861
*10027 FILLER_160_867
*10028 FILLER_160_869
*10029 FILLER_160_881
*10030 FILLER_160_893
*10031 FILLER_160_905
*10032 FILLER_160_917
*10033 FILLER_160_923
*10034 FILLER_160_925
*10035 FILLER_160_937
*10036 FILLER_160_949
*10037 FILLER_160_961
*10038 FILLER_160_97
*10039 FILLER_160_973
*10040 FILLER_160_979
*10041 FILLER_160_981
*10042 FILLER_160_993
*10043 FILLER_161_1001
*10044 FILLER_161_1007
*10045 FILLER_161_1009
*10046 FILLER_161_1021
*10047 FILLER_161_1033
*10048 FILLER_161_1045
*10049 FILLER_161_105
*10050 FILLER_161_1057
*10051 FILLER_161_1063
*10052 FILLER_161_1065
*10053 FILLER_161_1077
*10054 FILLER_161_1089
*10055 FILLER_161_1101
*10056 FILLER_161_111
*10057 FILLER_161_1113
*10058 FILLER_161_1119
*10059 FILLER_161_1121
*10060 FILLER_161_113
*10061 FILLER_161_1133
*10062 FILLER_161_1145
*10063 FILLER_161_1157
*10064 FILLER_161_1169
*10065 FILLER_161_1175
*10066 FILLER_161_1177
*10067 FILLER_161_1189
*10068 FILLER_161_1201
*10069 FILLER_161_1213
*10070 FILLER_161_1225
*10071 FILLER_161_1231
*10072 FILLER_161_1233
*10073 FILLER_161_1245
*10074 FILLER_161_125
*10075 FILLER_161_1257
*10076 FILLER_161_1269
*10077 FILLER_161_137
*10078 FILLER_161_149
*10079 FILLER_161_161
*10080 FILLER_161_167
*10081 FILLER_161_169
*10082 FILLER_161_181
*10083 FILLER_161_19
*10084 FILLER_161_193
*10085 FILLER_161_205
*10086 FILLER_161_217
*10087 FILLER_161_223
*10088 FILLER_161_225
*10089 FILLER_161_237
*10090 FILLER_161_249
*10091 FILLER_161_261
*10092 FILLER_161_273
*10093 FILLER_161_279
*10094 FILLER_161_281
*10095 FILLER_161_293
*10096 FILLER_161_3
*10097 FILLER_161_305
*10098 FILLER_161_31
*10099 FILLER_161_317
*10100 FILLER_161_329
*10101 FILLER_161_335
*10102 FILLER_161_337
*10103 FILLER_161_349
*10104 FILLER_161_361
*10105 FILLER_161_373
*10106 FILLER_161_385
*10107 FILLER_161_391
*10108 FILLER_161_393
*10109 FILLER_161_405
*10110 FILLER_161_417
*10111 FILLER_161_429
*10112 FILLER_161_43
*10113 FILLER_161_441
*10114 FILLER_161_447
*10115 FILLER_161_449
*10116 FILLER_161_461
*10117 FILLER_161_473
*10118 FILLER_161_485
*10119 FILLER_161_497
*10120 FILLER_161_503
*10121 FILLER_161_505
*10122 FILLER_161_517
*10123 FILLER_161_529
*10124 FILLER_161_541
*10125 FILLER_161_55
*10126 FILLER_161_553
*10127 FILLER_161_559
*10128 FILLER_161_561
*10129 FILLER_161_57
*10130 FILLER_161_573
*10131 FILLER_161_585
*10132 FILLER_161_597
*10133 FILLER_161_609
*10134 FILLER_161_615
*10135 FILLER_161_617
*10136 FILLER_161_629
*10137 FILLER_161_641
*10138 FILLER_161_653
*10139 FILLER_161_665
*10140 FILLER_161_671
*10141 FILLER_161_673
*10142 FILLER_161_685
*10143 FILLER_161_69
*10144 FILLER_161_697
*10145 FILLER_161_7
*10146 FILLER_161_709
*10147 FILLER_161_721
*10148 FILLER_161_727
*10149 FILLER_161_729
*10150 FILLER_161_741
*10151 FILLER_161_753
*10152 FILLER_161_765
*10153 FILLER_161_777
*10154 FILLER_161_783
*10155 FILLER_161_785
*10156 FILLER_161_797
*10157 FILLER_161_809
*10158 FILLER_161_81
*10159 FILLER_161_821
*10160 FILLER_161_833
*10161 FILLER_161_839
*10162 FILLER_161_841
*10163 FILLER_161_853
*10164 FILLER_161_865
*10165 FILLER_161_877
*10166 FILLER_161_889
*10167 FILLER_161_895
*10168 FILLER_161_897
*10169 FILLER_161_909
*10170 FILLER_161_921
*10171 FILLER_161_93
*10172 FILLER_161_933
*10173 FILLER_161_945
*10174 FILLER_161_951
*10175 FILLER_161_953
*10176 FILLER_161_965
*10177 FILLER_161_977
*10178 FILLER_161_989
*10179 FILLER_162_1005
*10180 FILLER_162_1017
*10181 FILLER_162_1029
*10182 FILLER_162_1035
*10183 FILLER_162_1037
*10184 FILLER_162_1049
*10185 FILLER_162_1061
*10186 FILLER_162_1073
*10187 FILLER_162_1085
*10188 FILLER_162_109
*10189 FILLER_162_1091
*10190 FILLER_162_1093
*10191 FILLER_162_1105
*10192 FILLER_162_1117
*10193 FILLER_162_1129
*10194 FILLER_162_1141
*10195 FILLER_162_1147
*10196 FILLER_162_1149
*10197 FILLER_162_1161
*10198 FILLER_162_1173
*10199 FILLER_162_1185
*10200 FILLER_162_1197
*10201 FILLER_162_1203
*10202 FILLER_162_1205
*10203 FILLER_162_121
*10204 FILLER_162_1217
*10205 FILLER_162_1229
*10206 FILLER_162_1241
*10207 FILLER_162_1253
*10208 FILLER_162_1259
*10209 FILLER_162_1261
*10210 FILLER_162_1273
*10211 FILLER_162_133
*10212 FILLER_162_139
*10213 FILLER_162_141
*10214 FILLER_162_153
*10215 FILLER_162_165
*10216 FILLER_162_177
*10217 FILLER_162_189
*10218 FILLER_162_19
*10219 FILLER_162_195
*10220 FILLER_162_197
*10221 FILLER_162_209
*10222 FILLER_162_221
*10223 FILLER_162_233
*10224 FILLER_162_245
*10225 FILLER_162_251
*10226 FILLER_162_253
*10227 FILLER_162_265
*10228 FILLER_162_27
*10229 FILLER_162_277
*10230 FILLER_162_289
*10231 FILLER_162_29
*10232 FILLER_162_3
*10233 FILLER_162_301
*10234 FILLER_162_307
*10235 FILLER_162_309
*10236 FILLER_162_321
*10237 FILLER_162_333
*10238 FILLER_162_345
*10239 FILLER_162_357
*10240 FILLER_162_363
*10241 FILLER_162_365
*10242 FILLER_162_377
*10243 FILLER_162_389
*10244 FILLER_162_401
*10245 FILLER_162_41
*10246 FILLER_162_413
*10247 FILLER_162_419
*10248 FILLER_162_421
*10249 FILLER_162_433
*10250 FILLER_162_445
*10251 FILLER_162_457
*10252 FILLER_162_469
*10253 FILLER_162_475
*10254 FILLER_162_477
*10255 FILLER_162_489
*10256 FILLER_162_501
*10257 FILLER_162_513
*10258 FILLER_162_525
*10259 FILLER_162_53
*10260 FILLER_162_531
*10261 FILLER_162_533
*10262 FILLER_162_545
*10263 FILLER_162_557
*10264 FILLER_162_569
*10265 FILLER_162_581
*10266 FILLER_162_587
*10267 FILLER_162_589
*10268 FILLER_162_601
*10269 FILLER_162_613
*10270 FILLER_162_625
*10271 FILLER_162_637
*10272 FILLER_162_643
*10273 FILLER_162_645
*10274 FILLER_162_65
*10275 FILLER_162_657
*10276 FILLER_162_669
*10277 FILLER_162_681
*10278 FILLER_162_693
*10279 FILLER_162_699
*10280 FILLER_162_7
*10281 FILLER_162_701
*10282 FILLER_162_713
*10283 FILLER_162_725
*10284 FILLER_162_737
*10285 FILLER_162_749
*10286 FILLER_162_755
*10287 FILLER_162_757
*10288 FILLER_162_769
*10289 FILLER_162_77
*10290 FILLER_162_781
*10291 FILLER_162_793
*10292 FILLER_162_805
*10293 FILLER_162_811
*10294 FILLER_162_813
*10295 FILLER_162_825
*10296 FILLER_162_83
*10297 FILLER_162_837
*10298 FILLER_162_849
*10299 FILLER_162_85
*10300 FILLER_162_861
*10301 FILLER_162_867
*10302 FILLER_162_869
*10303 FILLER_162_881
*10304 FILLER_162_893
*10305 FILLER_162_905
*10306 FILLER_162_917
*10307 FILLER_162_923
*10308 FILLER_162_925
*10309 FILLER_162_937
*10310 FILLER_162_949
*10311 FILLER_162_961
*10312 FILLER_162_97
*10313 FILLER_162_973
*10314 FILLER_162_979
*10315 FILLER_162_981
*10316 FILLER_162_993
*10317 FILLER_163_1001
*10318 FILLER_163_1007
*10319 FILLER_163_1009
*10320 FILLER_163_1021
*10321 FILLER_163_1033
*10322 FILLER_163_1045
*10323 FILLER_163_105
*10324 FILLER_163_1057
*10325 FILLER_163_1063
*10326 FILLER_163_1065
*10327 FILLER_163_1077
*10328 FILLER_163_1089
*10329 FILLER_163_1101
*10330 FILLER_163_111
*10331 FILLER_163_1113
*10332 FILLER_163_1119
*10333 FILLER_163_1121
*10334 FILLER_163_113
*10335 FILLER_163_1133
*10336 FILLER_163_1145
*10337 FILLER_163_1157
*10338 FILLER_163_1169
*10339 FILLER_163_1175
*10340 FILLER_163_1177
*10341 FILLER_163_1189
*10342 FILLER_163_1201
*10343 FILLER_163_1213
*10344 FILLER_163_1225
*10345 FILLER_163_1231
*10346 FILLER_163_1233
*10347 FILLER_163_1245
*10348 FILLER_163_125
*10349 FILLER_163_1257
*10350 FILLER_163_1269
*10351 FILLER_163_137
*10352 FILLER_163_149
*10353 FILLER_163_15
*10354 FILLER_163_161
*10355 FILLER_163_167
*10356 FILLER_163_169
*10357 FILLER_163_181
*10358 FILLER_163_193
*10359 FILLER_163_205
*10360 FILLER_163_217
*10361 FILLER_163_223
*10362 FILLER_163_225
*10363 FILLER_163_237
*10364 FILLER_163_249
*10365 FILLER_163_261
*10366 FILLER_163_27
*10367 FILLER_163_273
*10368 FILLER_163_279
*10369 FILLER_163_281
*10370 FILLER_163_293
*10371 FILLER_163_3
*10372 FILLER_163_305
*10373 FILLER_163_317
*10374 FILLER_163_329
*10375 FILLER_163_335
*10376 FILLER_163_337
*10377 FILLER_163_349
*10378 FILLER_163_361
*10379 FILLER_163_373
*10380 FILLER_163_385
*10381 FILLER_163_39
*10382 FILLER_163_391
*10383 FILLER_163_393
*10384 FILLER_163_405
*10385 FILLER_163_417
*10386 FILLER_163_429
*10387 FILLER_163_441
*10388 FILLER_163_447
*10389 FILLER_163_449
*10390 FILLER_163_461
*10391 FILLER_163_473
*10392 FILLER_163_485
*10393 FILLER_163_497
*10394 FILLER_163_503
*10395 FILLER_163_505
*10396 FILLER_163_51
*10397 FILLER_163_517
*10398 FILLER_163_529
*10399 FILLER_163_541
*10400 FILLER_163_55
*10401 FILLER_163_553
*10402 FILLER_163_559
*10403 FILLER_163_561
*10404 FILLER_163_57
*10405 FILLER_163_573
*10406 FILLER_163_585
*10407 FILLER_163_597
*10408 FILLER_163_609
*10409 FILLER_163_615
*10410 FILLER_163_617
*10411 FILLER_163_629
*10412 FILLER_163_641
*10413 FILLER_163_653
*10414 FILLER_163_665
*10415 FILLER_163_671
*10416 FILLER_163_673
*10417 FILLER_163_685
*10418 FILLER_163_69
*10419 FILLER_163_697
*10420 FILLER_163_709
*10421 FILLER_163_721
*10422 FILLER_163_727
*10423 FILLER_163_729
*10424 FILLER_163_741
*10425 FILLER_163_753
*10426 FILLER_163_765
*10427 FILLER_163_777
*10428 FILLER_163_783
*10429 FILLER_163_785
*10430 FILLER_163_797
*10431 FILLER_163_809
*10432 FILLER_163_81
*10433 FILLER_163_821
*10434 FILLER_163_833
*10435 FILLER_163_839
*10436 FILLER_163_841
*10437 FILLER_163_853
*10438 FILLER_163_865
*10439 FILLER_163_877
*10440 FILLER_163_889
*10441 FILLER_163_895
*10442 FILLER_163_897
*10443 FILLER_163_909
*10444 FILLER_163_921
*10445 FILLER_163_93
*10446 FILLER_163_933
*10447 FILLER_163_945
*10448 FILLER_163_951
*10449 FILLER_163_953
*10450 FILLER_163_965
*10451 FILLER_163_977
*10452 FILLER_163_989
*10453 FILLER_164_1005
*10454 FILLER_164_1017
*10455 FILLER_164_1029
*10456 FILLER_164_1035
*10457 FILLER_164_1037
*10458 FILLER_164_1049
*10459 FILLER_164_1061
*10460 FILLER_164_1073
*10461 FILLER_164_1085
*10462 FILLER_164_109
*10463 FILLER_164_1091
*10464 FILLER_164_1093
*10465 FILLER_164_1105
*10466 FILLER_164_1117
*10467 FILLER_164_1129
*10468 FILLER_164_1141
*10469 FILLER_164_1147
*10470 FILLER_164_1149
*10471 FILLER_164_1161
*10472 FILLER_164_1173
*10473 FILLER_164_1185
*10474 FILLER_164_1197
*10475 FILLER_164_1203
*10476 FILLER_164_1205
*10477 FILLER_164_121
*10478 FILLER_164_1217
*10479 FILLER_164_1229
*10480 FILLER_164_1241
*10481 FILLER_164_1253
*10482 FILLER_164_1259
*10483 FILLER_164_1261
*10484 FILLER_164_1273
*10485 FILLER_164_133
*10486 FILLER_164_139
*10487 FILLER_164_141
*10488 FILLER_164_153
*10489 FILLER_164_165
*10490 FILLER_164_177
*10491 FILLER_164_189
*10492 FILLER_164_19
*10493 FILLER_164_195
*10494 FILLER_164_197
*10495 FILLER_164_209
*10496 FILLER_164_221
*10497 FILLER_164_233
*10498 FILLER_164_245
*10499 FILLER_164_251
*10500 FILLER_164_253
*10501 FILLER_164_265
*10502 FILLER_164_27
*10503 FILLER_164_277
*10504 FILLER_164_289
*10505 FILLER_164_29
*10506 FILLER_164_3
*10507 FILLER_164_301
*10508 FILLER_164_307
*10509 FILLER_164_309
*10510 FILLER_164_321
*10511 FILLER_164_333
*10512 FILLER_164_345
*10513 FILLER_164_357
*10514 FILLER_164_363
*10515 FILLER_164_365
*10516 FILLER_164_377
*10517 FILLER_164_389
*10518 FILLER_164_401
*10519 FILLER_164_41
*10520 FILLER_164_413
*10521 FILLER_164_419
*10522 FILLER_164_421
*10523 FILLER_164_433
*10524 FILLER_164_445
*10525 FILLER_164_457
*10526 FILLER_164_469
*10527 FILLER_164_475
*10528 FILLER_164_477
*10529 FILLER_164_489
*10530 FILLER_164_501
*10531 FILLER_164_513
*10532 FILLER_164_525
*10533 FILLER_164_53
*10534 FILLER_164_531
*10535 FILLER_164_533
*10536 FILLER_164_545
*10537 FILLER_164_557
*10538 FILLER_164_569
*10539 FILLER_164_581
*10540 FILLER_164_587
*10541 FILLER_164_589
*10542 FILLER_164_601
*10543 FILLER_164_613
*10544 FILLER_164_625
*10545 FILLER_164_637
*10546 FILLER_164_643
*10547 FILLER_164_645
*10548 FILLER_164_65
*10549 FILLER_164_657
*10550 FILLER_164_669
*10551 FILLER_164_681
*10552 FILLER_164_693
*10553 FILLER_164_699
*10554 FILLER_164_7
*10555 FILLER_164_701
*10556 FILLER_164_713
*10557 FILLER_164_725
*10558 FILLER_164_737
*10559 FILLER_164_749
*10560 FILLER_164_755
*10561 FILLER_164_757
*10562 FILLER_164_769
*10563 FILLER_164_77
*10564 FILLER_164_781
*10565 FILLER_164_793
*10566 FILLER_164_805
*10567 FILLER_164_811
*10568 FILLER_164_813
*10569 FILLER_164_825
*10570 FILLER_164_83
*10571 FILLER_164_837
*10572 FILLER_164_849
*10573 FILLER_164_85
*10574 FILLER_164_861
*10575 FILLER_164_867
*10576 FILLER_164_869
*10577 FILLER_164_881
*10578 FILLER_164_893
*10579 FILLER_164_905
*10580 FILLER_164_917
*10581 FILLER_164_923
*10582 FILLER_164_925
*10583 FILLER_164_937
*10584 FILLER_164_949
*10585 FILLER_164_961
*10586 FILLER_164_97
*10587 FILLER_164_973
*10588 FILLER_164_979
*10589 FILLER_164_981
*10590 FILLER_164_993
*10591 FILLER_165_1001
*10592 FILLER_165_1007
*10593 FILLER_165_1009
*10594 FILLER_165_1021
*10595 FILLER_165_1033
*10596 FILLER_165_1045
*10597 FILLER_165_105
*10598 FILLER_165_1057
*10599 FILLER_165_1063
*10600 FILLER_165_1065
*10601 FILLER_165_1077
*10602 FILLER_165_1089
*10603 FILLER_165_1101
*10604 FILLER_165_111
*10605 FILLER_165_1113
*10606 FILLER_165_1119
*10607 FILLER_165_1121
*10608 FILLER_165_113
*10609 FILLER_165_1133
*10610 FILLER_165_1145
*10611 FILLER_165_1157
*10612 FILLER_165_1169
*10613 FILLER_165_1175
*10614 FILLER_165_1177
*10615 FILLER_165_1189
*10616 FILLER_165_1201
*10617 FILLER_165_1213
*10618 FILLER_165_1225
*10619 FILLER_165_1231
*10620 FILLER_165_1233
*10621 FILLER_165_1245
*10622 FILLER_165_125
*10623 FILLER_165_1257
*10624 FILLER_165_1269
*10625 FILLER_165_137
*10626 FILLER_165_149
*10627 FILLER_165_161
*10628 FILLER_165_167
*10629 FILLER_165_169
*10630 FILLER_165_181
*10631 FILLER_165_19
*10632 FILLER_165_193
*10633 FILLER_165_205
*10634 FILLER_165_217
*10635 FILLER_165_223
*10636 FILLER_165_225
*10637 FILLER_165_237
*10638 FILLER_165_249
*10639 FILLER_165_261
*10640 FILLER_165_273
*10641 FILLER_165_279
*10642 FILLER_165_281
*10643 FILLER_165_293
*10644 FILLER_165_3
*10645 FILLER_165_305
*10646 FILLER_165_31
*10647 FILLER_165_317
*10648 FILLER_165_329
*10649 FILLER_165_335
*10650 FILLER_165_337
*10651 FILLER_165_349
*10652 FILLER_165_361
*10653 FILLER_165_373
*10654 FILLER_165_385
*10655 FILLER_165_391
*10656 FILLER_165_393
*10657 FILLER_165_405
*10658 FILLER_165_417
*10659 FILLER_165_429
*10660 FILLER_165_43
*10661 FILLER_165_441
*10662 FILLER_165_447
*10663 FILLER_165_449
*10664 FILLER_165_461
*10665 FILLER_165_473
*10666 FILLER_165_485
*10667 FILLER_165_497
*10668 FILLER_165_503
*10669 FILLER_165_505
*10670 FILLER_165_517
*10671 FILLER_165_529
*10672 FILLER_165_541
*10673 FILLER_165_55
*10674 FILLER_165_553
*10675 FILLER_165_559
*10676 FILLER_165_561
*10677 FILLER_165_57
*10678 FILLER_165_573
*10679 FILLER_165_585
*10680 FILLER_165_597
*10681 FILLER_165_609
*10682 FILLER_165_615
*10683 FILLER_165_617
*10684 FILLER_165_629
*10685 FILLER_165_641
*10686 FILLER_165_653
*10687 FILLER_165_665
*10688 FILLER_165_671
*10689 FILLER_165_673
*10690 FILLER_165_685
*10691 FILLER_165_69
*10692 FILLER_165_697
*10693 FILLER_165_7
*10694 FILLER_165_709
*10695 FILLER_165_721
*10696 FILLER_165_727
*10697 FILLER_165_729
*10698 FILLER_165_741
*10699 FILLER_165_753
*10700 FILLER_165_765
*10701 FILLER_165_777
*10702 FILLER_165_783
*10703 FILLER_165_785
*10704 FILLER_165_797
*10705 FILLER_165_809
*10706 FILLER_165_81
*10707 FILLER_165_821
*10708 FILLER_165_833
*10709 FILLER_165_839
*10710 FILLER_165_841
*10711 FILLER_165_853
*10712 FILLER_165_865
*10713 FILLER_165_877
*10714 FILLER_165_889
*10715 FILLER_165_895
*10716 FILLER_165_897
*10717 FILLER_165_909
*10718 FILLER_165_921
*10719 FILLER_165_93
*10720 FILLER_165_933
*10721 FILLER_165_945
*10722 FILLER_165_951
*10723 FILLER_165_953
*10724 FILLER_165_965
*10725 FILLER_165_977
*10726 FILLER_165_989
*10727 FILLER_166_1005
*10728 FILLER_166_1017
*10729 FILLER_166_1029
*10730 FILLER_166_1035
*10731 FILLER_166_1037
*10732 FILLER_166_1049
*10733 FILLER_166_1061
*10734 FILLER_166_1073
*10735 FILLER_166_1085
*10736 FILLER_166_109
*10737 FILLER_166_1091
*10738 FILLER_166_1093
*10739 FILLER_166_1105
*10740 FILLER_166_1117
*10741 FILLER_166_1129
*10742 FILLER_166_1141
*10743 FILLER_166_1147
*10744 FILLER_166_1149
*10745 FILLER_166_1161
*10746 FILLER_166_1173
*10747 FILLER_166_1185
*10748 FILLER_166_1197
*10749 FILLER_166_1203
*10750 FILLER_166_1205
*10751 FILLER_166_121
*10752 FILLER_166_1217
*10753 FILLER_166_1229
*10754 FILLER_166_1241
*10755 FILLER_166_1253
*10756 FILLER_166_1259
*10757 FILLER_166_1261
*10758 FILLER_166_1273
*10759 FILLER_166_133
*10760 FILLER_166_139
*10761 FILLER_166_141
*10762 FILLER_166_153
*10763 FILLER_166_165
*10764 FILLER_166_177
*10765 FILLER_166_189
*10766 FILLER_166_19
*10767 FILLER_166_195
*10768 FILLER_166_197
*10769 FILLER_166_209
*10770 FILLER_166_221
*10771 FILLER_166_233
*10772 FILLER_166_245
*10773 FILLER_166_251
*10774 FILLER_166_253
*10775 FILLER_166_265
*10776 FILLER_166_27
*10777 FILLER_166_277
*10778 FILLER_166_289
*10779 FILLER_166_29
*10780 FILLER_166_3
*10781 FILLER_166_301
*10782 FILLER_166_307
*10783 FILLER_166_309
*10784 FILLER_166_321
*10785 FILLER_166_333
*10786 FILLER_166_345
*10787 FILLER_166_357
*10788 FILLER_166_363
*10789 FILLER_166_365
*10790 FILLER_166_377
*10791 FILLER_166_389
*10792 FILLER_166_401
*10793 FILLER_166_41
*10794 FILLER_166_413
*10795 FILLER_166_419
*10796 FILLER_166_421
*10797 FILLER_166_433
*10798 FILLER_166_445
*10799 FILLER_166_457
*10800 FILLER_166_469
*10801 FILLER_166_475
*10802 FILLER_166_477
*10803 FILLER_166_489
*10804 FILLER_166_501
*10805 FILLER_166_513
*10806 FILLER_166_525
*10807 FILLER_166_53
*10808 FILLER_166_531
*10809 FILLER_166_533
*10810 FILLER_166_545
*10811 FILLER_166_557
*10812 FILLER_166_569
*10813 FILLER_166_581
*10814 FILLER_166_587
*10815 FILLER_166_589
*10816 FILLER_166_601
*10817 FILLER_166_613
*10818 FILLER_166_625
*10819 FILLER_166_637
*10820 FILLER_166_643
*10821 FILLER_166_645
*10822 FILLER_166_65
*10823 FILLER_166_657
*10824 FILLER_166_669
*10825 FILLER_166_681
*10826 FILLER_166_693
*10827 FILLER_166_699
*10828 FILLER_166_7
*10829 FILLER_166_701
*10830 FILLER_166_713
*10831 FILLER_166_725
*10832 FILLER_166_737
*10833 FILLER_166_749
*10834 FILLER_166_755
*10835 FILLER_166_757
*10836 FILLER_166_769
*10837 FILLER_166_77
*10838 FILLER_166_781
*10839 FILLER_166_793
*10840 FILLER_166_805
*10841 FILLER_166_811
*10842 FILLER_166_813
*10843 FILLER_166_825
*10844 FILLER_166_83
*10845 FILLER_166_837
*10846 FILLER_166_849
*10847 FILLER_166_85
*10848 FILLER_166_861
*10849 FILLER_166_867
*10850 FILLER_166_869
*10851 FILLER_166_881
*10852 FILLER_166_893
*10853 FILLER_166_905
*10854 FILLER_166_917
*10855 FILLER_166_923
*10856 FILLER_166_925
*10857 FILLER_166_937
*10858 FILLER_166_949
*10859 FILLER_166_961
*10860 FILLER_166_97
*10861 FILLER_166_973
*10862 FILLER_166_979
*10863 FILLER_166_981
*10864 FILLER_166_993
*10865 FILLER_167_1001
*10866 FILLER_167_1007
*10867 FILLER_167_1009
*10868 FILLER_167_1021
*10869 FILLER_167_1033
*10870 FILLER_167_1045
*10871 FILLER_167_105
*10872 FILLER_167_1057
*10873 FILLER_167_1063
*10874 FILLER_167_1065
*10875 FILLER_167_1077
*10876 FILLER_167_1089
*10877 FILLER_167_1101
*10878 FILLER_167_111
*10879 FILLER_167_1113
*10880 FILLER_167_1119
*10881 FILLER_167_1121
*10882 FILLER_167_113
*10883 FILLER_167_1133
*10884 FILLER_167_1145
*10885 FILLER_167_1157
*10886 FILLER_167_1169
*10887 FILLER_167_1175
*10888 FILLER_167_1177
*10889 FILLER_167_1189
*10890 FILLER_167_1201
*10891 FILLER_167_1213
*10892 FILLER_167_1225
*10893 FILLER_167_1231
*10894 FILLER_167_1233
*10895 FILLER_167_1245
*10896 FILLER_167_125
*10897 FILLER_167_1257
*10898 FILLER_167_1269
*10899 FILLER_167_137
*10900 FILLER_167_149
*10901 FILLER_167_15
*10902 FILLER_167_161
*10903 FILLER_167_167
*10904 FILLER_167_169
*10905 FILLER_167_181
*10906 FILLER_167_193
*10907 FILLER_167_205
*10908 FILLER_167_217
*10909 FILLER_167_223
*10910 FILLER_167_225
*10911 FILLER_167_237
*10912 FILLER_167_249
*10913 FILLER_167_261
*10914 FILLER_167_27
*10915 FILLER_167_273
*10916 FILLER_167_279
*10917 FILLER_167_281
*10918 FILLER_167_293
*10919 FILLER_167_3
*10920 FILLER_167_305
*10921 FILLER_167_317
*10922 FILLER_167_329
*10923 FILLER_167_335
*10924 FILLER_167_337
*10925 FILLER_167_349
*10926 FILLER_167_361
*10927 FILLER_167_373
*10928 FILLER_167_385
*10929 FILLER_167_39
*10930 FILLER_167_391
*10931 FILLER_167_393
*10932 FILLER_167_405
*10933 FILLER_167_417
*10934 FILLER_167_429
*10935 FILLER_167_441
*10936 FILLER_167_447
*10937 FILLER_167_449
*10938 FILLER_167_461
*10939 FILLER_167_473
*10940 FILLER_167_485
*10941 FILLER_167_497
*10942 FILLER_167_503
*10943 FILLER_167_505
*10944 FILLER_167_51
*10945 FILLER_167_517
*10946 FILLER_167_529
*10947 FILLER_167_541
*10948 FILLER_167_55
*10949 FILLER_167_553
*10950 FILLER_167_559
*10951 FILLER_167_561
*10952 FILLER_167_57
*10953 FILLER_167_573
*10954 FILLER_167_585
*10955 FILLER_167_597
*10956 FILLER_167_609
*10957 FILLER_167_615
*10958 FILLER_167_617
*10959 FILLER_167_629
*10960 FILLER_167_641
*10961 FILLER_167_653
*10962 FILLER_167_665
*10963 FILLER_167_671
*10964 FILLER_167_673
*10965 FILLER_167_685
*10966 FILLER_167_69
*10967 FILLER_167_697
*10968 FILLER_167_709
*10969 FILLER_167_721
*10970 FILLER_167_727
*10971 FILLER_167_729
*10972 FILLER_167_741
*10973 FILLER_167_753
*10974 FILLER_167_765
*10975 FILLER_167_777
*10976 FILLER_167_783
*10977 FILLER_167_785
*10978 FILLER_167_797
*10979 FILLER_167_809
*10980 FILLER_167_81
*10981 FILLER_167_821
*10982 FILLER_167_833
*10983 FILLER_167_839
*10984 FILLER_167_841
*10985 FILLER_167_853
*10986 FILLER_167_865
*10987 FILLER_167_877
*10988 FILLER_167_889
*10989 FILLER_167_895
*10990 FILLER_167_897
*10991 FILLER_167_909
*10992 FILLER_167_921
*10993 FILLER_167_93
*10994 FILLER_167_933
*10995 FILLER_167_945
*10996 FILLER_167_951
*10997 FILLER_167_953
*10998 FILLER_167_965
*10999 FILLER_167_977
*11000 FILLER_167_989
*11001 FILLER_168_1005
*11002 FILLER_168_1017
*11003 FILLER_168_1029
*11004 FILLER_168_1035
*11005 FILLER_168_1037
*11006 FILLER_168_1049
*11007 FILLER_168_1061
*11008 FILLER_168_1073
*11009 FILLER_168_1085
*11010 FILLER_168_109
*11011 FILLER_168_1091
*11012 FILLER_168_1093
*11013 FILLER_168_1105
*11014 FILLER_168_1117
*11015 FILLER_168_1129
*11016 FILLER_168_1141
*11017 FILLER_168_1147
*11018 FILLER_168_1149
*11019 FILLER_168_1161
*11020 FILLER_168_1173
*11021 FILLER_168_1185
*11022 FILLER_168_1197
*11023 FILLER_168_1203
*11024 FILLER_168_1205
*11025 FILLER_168_121
*11026 FILLER_168_1217
*11027 FILLER_168_1229
*11028 FILLER_168_1241
*11029 FILLER_168_1253
*11030 FILLER_168_1259
*11031 FILLER_168_1261
*11032 FILLER_168_1273
*11033 FILLER_168_133
*11034 FILLER_168_139
*11035 FILLER_168_141
*11036 FILLER_168_15
*11037 FILLER_168_153
*11038 FILLER_168_165
*11039 FILLER_168_177
*11040 FILLER_168_189
*11041 FILLER_168_195
*11042 FILLER_168_197
*11043 FILLER_168_209
*11044 FILLER_168_221
*11045 FILLER_168_233
*11046 FILLER_168_245
*11047 FILLER_168_251
*11048 FILLER_168_253
*11049 FILLER_168_265
*11050 FILLER_168_27
*11051 FILLER_168_277
*11052 FILLER_168_289
*11053 FILLER_168_29
*11054 FILLER_168_3
*11055 FILLER_168_301
*11056 FILLER_168_307
*11057 FILLER_168_309
*11058 FILLER_168_321
*11059 FILLER_168_333
*11060 FILLER_168_345
*11061 FILLER_168_357
*11062 FILLER_168_363
*11063 FILLER_168_365
*11064 FILLER_168_377
*11065 FILLER_168_389
*11066 FILLER_168_401
*11067 FILLER_168_41
*11068 FILLER_168_413
*11069 FILLER_168_419
*11070 FILLER_168_421
*11071 FILLER_168_433
*11072 FILLER_168_445
*11073 FILLER_168_457
*11074 FILLER_168_469
*11075 FILLER_168_475
*11076 FILLER_168_477
*11077 FILLER_168_489
*11078 FILLER_168_501
*11079 FILLER_168_513
*11080 FILLER_168_525
*11081 FILLER_168_53
*11082 FILLER_168_531
*11083 FILLER_168_533
*11084 FILLER_168_545
*11085 FILLER_168_557
*11086 FILLER_168_569
*11087 FILLER_168_581
*11088 FILLER_168_587
*11089 FILLER_168_589
*11090 FILLER_168_601
*11091 FILLER_168_613
*11092 FILLER_168_625
*11093 FILLER_168_637
*11094 FILLER_168_643
*11095 FILLER_168_645
*11096 FILLER_168_65
*11097 FILLER_168_657
*11098 FILLER_168_669
*11099 FILLER_168_681
*11100 FILLER_168_693
*11101 FILLER_168_699
*11102 FILLER_168_701
*11103 FILLER_168_713
*11104 FILLER_168_725
*11105 FILLER_168_737
*11106 FILLER_168_749
*11107 FILLER_168_755
*11108 FILLER_168_757
*11109 FILLER_168_769
*11110 FILLER_168_77
*11111 FILLER_168_781
*11112 FILLER_168_793
*11113 FILLER_168_805
*11114 FILLER_168_811
*11115 FILLER_168_813
*11116 FILLER_168_825
*11117 FILLER_168_83
*11118 FILLER_168_837
*11119 FILLER_168_849
*11120 FILLER_168_85
*11121 FILLER_168_861
*11122 FILLER_168_867
*11123 FILLER_168_869
*11124 FILLER_168_881
*11125 FILLER_168_893
*11126 FILLER_168_905
*11127 FILLER_168_917
*11128 FILLER_168_923
*11129 FILLER_168_925
*11130 FILLER_168_937
*11131 FILLER_168_949
*11132 FILLER_168_961
*11133 FILLER_168_97
*11134 FILLER_168_973
*11135 FILLER_168_979
*11136 FILLER_168_981
*11137 FILLER_168_993
*11138 FILLER_169_1001
*11139 FILLER_169_1007
*11140 FILLER_169_1009
*11141 FILLER_169_1021
*11142 FILLER_169_1033
*11143 FILLER_169_1045
*11144 FILLER_169_105
*11145 FILLER_169_1057
*11146 FILLER_169_1063
*11147 FILLER_169_1065
*11148 FILLER_169_1077
*11149 FILLER_169_1089
*11150 FILLER_169_1101
*11151 FILLER_169_111
*11152 FILLER_169_1113
*11153 FILLER_169_1119
*11154 FILLER_169_1121
*11155 FILLER_169_113
*11156 FILLER_169_1133
*11157 FILLER_169_1145
*11158 FILLER_169_1157
*11159 FILLER_169_1169
*11160 FILLER_169_1175
*11161 FILLER_169_1177
*11162 FILLER_169_1189
*11163 FILLER_169_1201
*11164 FILLER_169_1213
*11165 FILLER_169_1225
*11166 FILLER_169_1231
*11167 FILLER_169_1233
*11168 FILLER_169_1245
*11169 FILLER_169_125
*11170 FILLER_169_1257
*11171 FILLER_169_1269
*11172 FILLER_169_137
*11173 FILLER_169_149
*11174 FILLER_169_15
*11175 FILLER_169_161
*11176 FILLER_169_167
*11177 FILLER_169_169
*11178 FILLER_169_181
*11179 FILLER_169_193
*11180 FILLER_169_205
*11181 FILLER_169_217
*11182 FILLER_169_223
*11183 FILLER_169_225
*11184 FILLER_169_237
*11185 FILLER_169_249
*11186 FILLER_169_261
*11187 FILLER_169_27
*11188 FILLER_169_273
*11189 FILLER_169_279
*11190 FILLER_169_281
*11191 FILLER_169_293
*11192 FILLER_169_3
*11193 FILLER_169_305
*11194 FILLER_169_317
*11195 FILLER_169_329
*11196 FILLER_169_335
*11197 FILLER_169_337
*11198 FILLER_169_349
*11199 FILLER_169_361
*11200 FILLER_169_373
*11201 FILLER_169_385
*11202 FILLER_169_39
*11203 FILLER_169_391
*11204 FILLER_169_393
*11205 FILLER_169_405
*11206 FILLER_169_417
*11207 FILLER_169_429
*11208 FILLER_169_441
*11209 FILLER_169_447
*11210 FILLER_169_449
*11211 FILLER_169_461
*11212 FILLER_169_473
*11213 FILLER_169_485
*11214 FILLER_169_497
*11215 FILLER_169_503
*11216 FILLER_169_505
*11217 FILLER_169_51
*11218 FILLER_169_517
*11219 FILLER_169_529
*11220 FILLER_169_541
*11221 FILLER_169_55
*11222 FILLER_169_553
*11223 FILLER_169_559
*11224 FILLER_169_561
*11225 FILLER_169_57
*11226 FILLER_169_573
*11227 FILLER_169_585
*11228 FILLER_169_597
*11229 FILLER_169_609
*11230 FILLER_169_615
*11231 FILLER_169_617
*11232 FILLER_169_629
*11233 FILLER_169_641
*11234 FILLER_169_653
*11235 FILLER_169_665
*11236 FILLER_169_671
*11237 FILLER_169_673
*11238 FILLER_169_685
*11239 FILLER_169_69
*11240 FILLER_169_697
*11241 FILLER_169_709
*11242 FILLER_169_721
*11243 FILLER_169_727
*11244 FILLER_169_729
*11245 FILLER_169_741
*11246 FILLER_169_753
*11247 FILLER_169_765
*11248 FILLER_169_777
*11249 FILLER_169_783
*11250 FILLER_169_785
*11251 FILLER_169_797
*11252 FILLER_169_809
*11253 FILLER_169_81
*11254 FILLER_169_821
*11255 FILLER_169_833
*11256 FILLER_169_839
*11257 FILLER_169_841
*11258 FILLER_169_853
*11259 FILLER_169_865
*11260 FILLER_169_877
*11261 FILLER_169_889
*11262 FILLER_169_895
*11263 FILLER_169_897
*11264 FILLER_169_909
*11265 FILLER_169_921
*11266 FILLER_169_93
*11267 FILLER_169_933
*11268 FILLER_169_945
*11269 FILLER_169_951
*11270 FILLER_169_953
*11271 FILLER_169_965
*11272 FILLER_169_977
*11273 FILLER_169_989
*11274 FILLER_16_1005
*11275 FILLER_16_1017
*11276 FILLER_16_1029
*11277 FILLER_16_1035
*11278 FILLER_16_1037
*11279 FILLER_16_1049
*11280 FILLER_16_1061
*11281 FILLER_16_1073
*11282 FILLER_16_1085
*11283 FILLER_16_109
*11284 FILLER_16_1091
*11285 FILLER_16_1093
*11286 FILLER_16_1105
*11287 FILLER_16_1117
*11288 FILLER_16_1129
*11289 FILLER_16_1141
*11290 FILLER_16_1147
*11291 FILLER_16_1149
*11292 FILLER_16_1161
*11293 FILLER_16_1173
*11294 FILLER_16_1185
*11295 FILLER_16_1197
*11296 FILLER_16_1203
*11297 FILLER_16_1205
*11298 FILLER_16_121
*11299 FILLER_16_1217
*11300 FILLER_16_1229
*11301 FILLER_16_1241
*11302 FILLER_16_1253
*11303 FILLER_16_1259
*11304 FILLER_16_1261
*11305 FILLER_16_1273
*11306 FILLER_16_133
*11307 FILLER_16_139
*11308 FILLER_16_141
*11309 FILLER_16_15
*11310 FILLER_16_153
*11311 FILLER_16_165
*11312 FILLER_16_177
*11313 FILLER_16_189
*11314 FILLER_16_195
*11315 FILLER_16_197
*11316 FILLER_16_209
*11317 FILLER_16_221
*11318 FILLER_16_233
*11319 FILLER_16_245
*11320 FILLER_16_251
*11321 FILLER_16_253
*11322 FILLER_16_265
*11323 FILLER_16_27
*11324 FILLER_16_277
*11325 FILLER_16_289
*11326 FILLER_16_29
*11327 FILLER_16_3
*11328 FILLER_16_301
*11329 FILLER_16_307
*11330 FILLER_16_309
*11331 FILLER_16_321
*11332 FILLER_16_333
*11333 FILLER_16_345
*11334 FILLER_16_357
*11335 FILLER_16_363
*11336 FILLER_16_365
*11337 FILLER_16_377
*11338 FILLER_16_389
*11339 FILLER_16_401
*11340 FILLER_16_41
*11341 FILLER_16_413
*11342 FILLER_16_419
*11343 FILLER_16_421
*11344 FILLER_16_433
*11345 FILLER_16_445
*11346 FILLER_16_457
*11347 FILLER_16_469
*11348 FILLER_16_475
*11349 FILLER_16_477
*11350 FILLER_16_489
*11351 FILLER_16_501
*11352 FILLER_16_513
*11353 FILLER_16_525
*11354 FILLER_16_53
*11355 FILLER_16_531
*11356 FILLER_16_533
*11357 FILLER_16_545
*11358 FILLER_16_557
*11359 FILLER_16_569
*11360 FILLER_16_581
*11361 FILLER_16_587
*11362 FILLER_16_589
*11363 FILLER_16_601
*11364 FILLER_16_613
*11365 FILLER_16_625
*11366 FILLER_16_637
*11367 FILLER_16_643
*11368 FILLER_16_645
*11369 FILLER_16_65
*11370 FILLER_16_657
*11371 FILLER_16_669
*11372 FILLER_16_681
*11373 FILLER_16_693
*11374 FILLER_16_699
*11375 FILLER_16_701
*11376 FILLER_16_713
*11377 FILLER_16_725
*11378 FILLER_16_737
*11379 FILLER_16_749
*11380 FILLER_16_755
*11381 FILLER_16_757
*11382 FILLER_16_769
*11383 FILLER_16_77
*11384 FILLER_16_781
*11385 FILLER_16_793
*11386 FILLER_16_805
*11387 FILLER_16_811
*11388 FILLER_16_813
*11389 FILLER_16_825
*11390 FILLER_16_83
*11391 FILLER_16_837
*11392 FILLER_16_849
*11393 FILLER_16_85
*11394 FILLER_16_861
*11395 FILLER_16_867
*11396 FILLER_16_869
*11397 FILLER_16_881
*11398 FILLER_16_893
*11399 FILLER_16_905
*11400 FILLER_16_917
*11401 FILLER_16_923
*11402 FILLER_16_925
*11403 FILLER_16_937
*11404 FILLER_16_949
*11405 FILLER_16_961
*11406 FILLER_16_97
*11407 FILLER_16_973
*11408 FILLER_16_979
*11409 FILLER_16_981
*11410 FILLER_16_993
*11411 FILLER_170_1005
*11412 FILLER_170_1017
*11413 FILLER_170_1029
*11414 FILLER_170_1035
*11415 FILLER_170_1037
*11416 FILLER_170_1049
*11417 FILLER_170_1061
*11418 FILLER_170_1073
*11419 FILLER_170_1085
*11420 FILLER_170_109
*11421 FILLER_170_1091
*11422 FILLER_170_1093
*11423 FILLER_170_1105
*11424 FILLER_170_1117
*11425 FILLER_170_1129
*11426 FILLER_170_1141
*11427 FILLER_170_1147
*11428 FILLER_170_1149
*11429 FILLER_170_1161
*11430 FILLER_170_1173
*11431 FILLER_170_1185
*11432 FILLER_170_1197
*11433 FILLER_170_1203
*11434 FILLER_170_1205
*11435 FILLER_170_121
*11436 FILLER_170_1217
*11437 FILLER_170_1229
*11438 FILLER_170_1241
*11439 FILLER_170_1253
*11440 FILLER_170_1259
*11441 FILLER_170_1261
*11442 FILLER_170_1273
*11443 FILLER_170_133
*11444 FILLER_170_139
*11445 FILLER_170_141
*11446 FILLER_170_15
*11447 FILLER_170_153
*11448 FILLER_170_165
*11449 FILLER_170_177
*11450 FILLER_170_189
*11451 FILLER_170_195
*11452 FILLER_170_197
*11453 FILLER_170_209
*11454 FILLER_170_221
*11455 FILLER_170_233
*11456 FILLER_170_245
*11457 FILLER_170_251
*11458 FILLER_170_253
*11459 FILLER_170_265
*11460 FILLER_170_27
*11461 FILLER_170_277
*11462 FILLER_170_289
*11463 FILLER_170_29
*11464 FILLER_170_3
*11465 FILLER_170_301
*11466 FILLER_170_307
*11467 FILLER_170_309
*11468 FILLER_170_321
*11469 FILLER_170_333
*11470 FILLER_170_345
*11471 FILLER_170_357
*11472 FILLER_170_363
*11473 FILLER_170_365
*11474 FILLER_170_377
*11475 FILLER_170_389
*11476 FILLER_170_401
*11477 FILLER_170_41
*11478 FILLER_170_413
*11479 FILLER_170_419
*11480 FILLER_170_421
*11481 FILLER_170_433
*11482 FILLER_170_445
*11483 FILLER_170_457
*11484 FILLER_170_469
*11485 FILLER_170_475
*11486 FILLER_170_477
*11487 FILLER_170_489
*11488 FILLER_170_501
*11489 FILLER_170_513
*11490 FILLER_170_525
*11491 FILLER_170_53
*11492 FILLER_170_531
*11493 FILLER_170_533
*11494 FILLER_170_545
*11495 FILLER_170_557
*11496 FILLER_170_569
*11497 FILLER_170_581
*11498 FILLER_170_587
*11499 FILLER_170_589
*11500 FILLER_170_601
*11501 FILLER_170_613
*11502 FILLER_170_625
*11503 FILLER_170_637
*11504 FILLER_170_643
*11505 FILLER_170_645
*11506 FILLER_170_65
*11507 FILLER_170_657
*11508 FILLER_170_669
*11509 FILLER_170_681
*11510 FILLER_170_693
*11511 FILLER_170_699
*11512 FILLER_170_701
*11513 FILLER_170_713
*11514 FILLER_170_725
*11515 FILLER_170_737
*11516 FILLER_170_749
*11517 FILLER_170_755
*11518 FILLER_170_757
*11519 FILLER_170_769
*11520 FILLER_170_77
*11521 FILLER_170_781
*11522 FILLER_170_793
*11523 FILLER_170_805
*11524 FILLER_170_811
*11525 FILLER_170_813
*11526 FILLER_170_825
*11527 FILLER_170_83
*11528 FILLER_170_837
*11529 FILLER_170_849
*11530 FILLER_170_85
*11531 FILLER_170_861
*11532 FILLER_170_867
*11533 FILLER_170_869
*11534 FILLER_170_881
*11535 FILLER_170_893
*11536 FILLER_170_905
*11537 FILLER_170_917
*11538 FILLER_170_923
*11539 FILLER_170_925
*11540 FILLER_170_937
*11541 FILLER_170_949
*11542 FILLER_170_961
*11543 FILLER_170_97
*11544 FILLER_170_973
*11545 FILLER_170_979
*11546 FILLER_170_981
*11547 FILLER_170_993
*11548 FILLER_171_1001
*11549 FILLER_171_1007
*11550 FILLER_171_1009
*11551 FILLER_171_1021
*11552 FILLER_171_1033
*11553 FILLER_171_1045
*11554 FILLER_171_105
*11555 FILLER_171_1057
*11556 FILLER_171_1063
*11557 FILLER_171_1065
*11558 FILLER_171_1077
*11559 FILLER_171_1089
*11560 FILLER_171_1101
*11561 FILLER_171_111
*11562 FILLER_171_1113
*11563 FILLER_171_1119
*11564 FILLER_171_1121
*11565 FILLER_171_113
*11566 FILLER_171_1133
*11567 FILLER_171_1145
*11568 FILLER_171_1157
*11569 FILLER_171_1169
*11570 FILLER_171_1175
*11571 FILLER_171_1177
*11572 FILLER_171_1189
*11573 FILLER_171_1201
*11574 FILLER_171_1213
*11575 FILLER_171_1225
*11576 FILLER_171_1231
*11577 FILLER_171_1233
*11578 FILLER_171_1245
*11579 FILLER_171_125
*11580 FILLER_171_1257
*11581 FILLER_171_1269
*11582 FILLER_171_137
*11583 FILLER_171_149
*11584 FILLER_171_15
*11585 FILLER_171_161
*11586 FILLER_171_167
*11587 FILLER_171_169
*11588 FILLER_171_181
*11589 FILLER_171_193
*11590 FILLER_171_205
*11591 FILLER_171_217
*11592 FILLER_171_223
*11593 FILLER_171_225
*11594 FILLER_171_237
*11595 FILLER_171_249
*11596 FILLER_171_261
*11597 FILLER_171_27
*11598 FILLER_171_273
*11599 FILLER_171_279
*11600 FILLER_171_281
*11601 FILLER_171_293
*11602 FILLER_171_3
*11603 FILLER_171_305
*11604 FILLER_171_317
*11605 FILLER_171_329
*11606 FILLER_171_335
*11607 FILLER_171_337
*11608 FILLER_171_349
*11609 FILLER_171_361
*11610 FILLER_171_373
*11611 FILLER_171_385
*11612 FILLER_171_39
*11613 FILLER_171_391
*11614 FILLER_171_393
*11615 FILLER_171_405
*11616 FILLER_171_417
*11617 FILLER_171_429
*11618 FILLER_171_441
*11619 FILLER_171_447
*11620 FILLER_171_449
*11621 FILLER_171_461
*11622 FILLER_171_473
*11623 FILLER_171_485
*11624 FILLER_171_497
*11625 FILLER_171_503
*11626 FILLER_171_505
*11627 FILLER_171_51
*11628 FILLER_171_517
*11629 FILLER_171_529
*11630 FILLER_171_541
*11631 FILLER_171_55
*11632 FILLER_171_553
*11633 FILLER_171_559
*11634 FILLER_171_561
*11635 FILLER_171_57
*11636 FILLER_171_573
*11637 FILLER_171_585
*11638 FILLER_171_597
*11639 FILLER_171_609
*11640 FILLER_171_615
*11641 FILLER_171_617
*11642 FILLER_171_629
*11643 FILLER_171_641
*11644 FILLER_171_653
*11645 FILLER_171_665
*11646 FILLER_171_671
*11647 FILLER_171_673
*11648 FILLER_171_685
*11649 FILLER_171_69
*11650 FILLER_171_697
*11651 FILLER_171_709
*11652 FILLER_171_721
*11653 FILLER_171_727
*11654 FILLER_171_729
*11655 FILLER_171_741
*11656 FILLER_171_753
*11657 FILLER_171_765
*11658 FILLER_171_777
*11659 FILLER_171_783
*11660 FILLER_171_785
*11661 FILLER_171_797
*11662 FILLER_171_809
*11663 FILLER_171_81
*11664 FILLER_171_821
*11665 FILLER_171_833
*11666 FILLER_171_839
*11667 FILLER_171_841
*11668 FILLER_171_853
*11669 FILLER_171_865
*11670 FILLER_171_877
*11671 FILLER_171_889
*11672 FILLER_171_895
*11673 FILLER_171_897
*11674 FILLER_171_909
*11675 FILLER_171_921
*11676 FILLER_171_93
*11677 FILLER_171_933
*11678 FILLER_171_945
*11679 FILLER_171_951
*11680 FILLER_171_953
*11681 FILLER_171_965
*11682 FILLER_171_977
*11683 FILLER_171_989
*11684 FILLER_172_1005
*11685 FILLER_172_1017
*11686 FILLER_172_1029
*11687 FILLER_172_1035
*11688 FILLER_172_1037
*11689 FILLER_172_1049
*11690 FILLER_172_1061
*11691 FILLER_172_1073
*11692 FILLER_172_1085
*11693 FILLER_172_109
*11694 FILLER_172_1091
*11695 FILLER_172_1093
*11696 FILLER_172_1105
*11697 FILLER_172_1117
*11698 FILLER_172_1129
*11699 FILLER_172_1141
*11700 FILLER_172_1147
*11701 FILLER_172_1149
*11702 FILLER_172_1161
*11703 FILLER_172_1173
*11704 FILLER_172_1185
*11705 FILLER_172_1197
*11706 FILLER_172_1203
*11707 FILLER_172_1205
*11708 FILLER_172_121
*11709 FILLER_172_1217
*11710 FILLER_172_1229
*11711 FILLER_172_1241
*11712 FILLER_172_1253
*11713 FILLER_172_1259
*11714 FILLER_172_1261
*11715 FILLER_172_1273
*11716 FILLER_172_133
*11717 FILLER_172_139
*11718 FILLER_172_141
*11719 FILLER_172_15
*11720 FILLER_172_153
*11721 FILLER_172_165
*11722 FILLER_172_177
*11723 FILLER_172_189
*11724 FILLER_172_195
*11725 FILLER_172_197
*11726 FILLER_172_209
*11727 FILLER_172_221
*11728 FILLER_172_233
*11729 FILLER_172_245
*11730 FILLER_172_251
*11731 FILLER_172_253
*11732 FILLER_172_265
*11733 FILLER_172_27
*11734 FILLER_172_277
*11735 FILLER_172_289
*11736 FILLER_172_29
*11737 FILLER_172_3
*11738 FILLER_172_301
*11739 FILLER_172_307
*11740 FILLER_172_309
*11741 FILLER_172_321
*11742 FILLER_172_333
*11743 FILLER_172_345
*11744 FILLER_172_357
*11745 FILLER_172_363
*11746 FILLER_172_365
*11747 FILLER_172_377
*11748 FILLER_172_389
*11749 FILLER_172_401
*11750 FILLER_172_41
*11751 FILLER_172_413
*11752 FILLER_172_419
*11753 FILLER_172_421
*11754 FILLER_172_433
*11755 FILLER_172_445
*11756 FILLER_172_457
*11757 FILLER_172_469
*11758 FILLER_172_475
*11759 FILLER_172_477
*11760 FILLER_172_489
*11761 FILLER_172_501
*11762 FILLER_172_513
*11763 FILLER_172_525
*11764 FILLER_172_53
*11765 FILLER_172_531
*11766 FILLER_172_533
*11767 FILLER_172_545
*11768 FILLER_172_557
*11769 FILLER_172_569
*11770 FILLER_172_581
*11771 FILLER_172_587
*11772 FILLER_172_589
*11773 FILLER_172_601
*11774 FILLER_172_613
*11775 FILLER_172_625
*11776 FILLER_172_637
*11777 FILLER_172_643
*11778 FILLER_172_645
*11779 FILLER_172_65
*11780 FILLER_172_657
*11781 FILLER_172_669
*11782 FILLER_172_681
*11783 FILLER_172_693
*11784 FILLER_172_699
*11785 FILLER_172_701
*11786 FILLER_172_713
*11787 FILLER_172_725
*11788 FILLER_172_737
*11789 FILLER_172_749
*11790 FILLER_172_755
*11791 FILLER_172_757
*11792 FILLER_172_769
*11793 FILLER_172_77
*11794 FILLER_172_781
*11795 FILLER_172_793
*11796 FILLER_172_805
*11797 FILLER_172_811
*11798 FILLER_172_813
*11799 FILLER_172_825
*11800 FILLER_172_83
*11801 FILLER_172_837
*11802 FILLER_172_849
*11803 FILLER_172_85
*11804 FILLER_172_861
*11805 FILLER_172_867
*11806 FILLER_172_869
*11807 FILLER_172_881
*11808 FILLER_172_893
*11809 FILLER_172_905
*11810 FILLER_172_917
*11811 FILLER_172_923
*11812 FILLER_172_925
*11813 FILLER_172_937
*11814 FILLER_172_949
*11815 FILLER_172_961
*11816 FILLER_172_97
*11817 FILLER_172_973
*11818 FILLER_172_979
*11819 FILLER_172_981
*11820 FILLER_172_993
*11821 FILLER_173_1001
*11822 FILLER_173_1007
*11823 FILLER_173_1009
*11824 FILLER_173_1021
*11825 FILLER_173_1033
*11826 FILLER_173_1045
*11827 FILLER_173_105
*11828 FILLER_173_1057
*11829 FILLER_173_1063
*11830 FILLER_173_1065
*11831 FILLER_173_1077
*11832 FILLER_173_1089
*11833 FILLER_173_1101
*11834 FILLER_173_111
*11835 FILLER_173_1113
*11836 FILLER_173_1119
*11837 FILLER_173_1121
*11838 FILLER_173_113
*11839 FILLER_173_1133
*11840 FILLER_173_1145
*11841 FILLER_173_1157
*11842 FILLER_173_1169
*11843 FILLER_173_1175
*11844 FILLER_173_1177
*11845 FILLER_173_1189
*11846 FILLER_173_1201
*11847 FILLER_173_1213
*11848 FILLER_173_1225
*11849 FILLER_173_1231
*11850 FILLER_173_1233
*11851 FILLER_173_1245
*11852 FILLER_173_125
*11853 FILLER_173_1257
*11854 FILLER_173_1269
*11855 FILLER_173_137
*11856 FILLER_173_149
*11857 FILLER_173_15
*11858 FILLER_173_161
*11859 FILLER_173_167
*11860 FILLER_173_169
*11861 FILLER_173_181
*11862 FILLER_173_193
*11863 FILLER_173_205
*11864 FILLER_173_217
*11865 FILLER_173_223
*11866 FILLER_173_225
*11867 FILLER_173_237
*11868 FILLER_173_249
*11869 FILLER_173_261
*11870 FILLER_173_27
*11871 FILLER_173_273
*11872 FILLER_173_279
*11873 FILLER_173_281
*11874 FILLER_173_293
*11875 FILLER_173_3
*11876 FILLER_173_305
*11877 FILLER_173_317
*11878 FILLER_173_329
*11879 FILLER_173_335
*11880 FILLER_173_337
*11881 FILLER_173_349
*11882 FILLER_173_361
*11883 FILLER_173_373
*11884 FILLER_173_385
*11885 FILLER_173_39
*11886 FILLER_173_391
*11887 FILLER_173_393
*11888 FILLER_173_405
*11889 FILLER_173_417
*11890 FILLER_173_429
*11891 FILLER_173_441
*11892 FILLER_173_447
*11893 FILLER_173_449
*11894 FILLER_173_461
*11895 FILLER_173_473
*11896 FILLER_173_485
*11897 FILLER_173_497
*11898 FILLER_173_503
*11899 FILLER_173_505
*11900 FILLER_173_51
*11901 FILLER_173_517
*11902 FILLER_173_529
*11903 FILLER_173_541
*11904 FILLER_173_55
*11905 FILLER_173_553
*11906 FILLER_173_559
*11907 FILLER_173_561
*11908 FILLER_173_57
*11909 FILLER_173_573
*11910 FILLER_173_585
*11911 FILLER_173_597
*11912 FILLER_173_609
*11913 FILLER_173_615
*11914 FILLER_173_617
*11915 FILLER_173_629
*11916 FILLER_173_641
*11917 FILLER_173_653
*11918 FILLER_173_665
*11919 FILLER_173_671
*11920 FILLER_173_673
*11921 FILLER_173_685
*11922 FILLER_173_69
*11923 FILLER_173_697
*11924 FILLER_173_709
*11925 FILLER_173_721
*11926 FILLER_173_727
*11927 FILLER_173_729
*11928 FILLER_173_741
*11929 FILLER_173_753
*11930 FILLER_173_765
*11931 FILLER_173_777
*11932 FILLER_173_783
*11933 FILLER_173_785
*11934 FILLER_173_797
*11935 FILLER_173_809
*11936 FILLER_173_81
*11937 FILLER_173_821
*11938 FILLER_173_833
*11939 FILLER_173_839
*11940 FILLER_173_841
*11941 FILLER_173_853
*11942 FILLER_173_865
*11943 FILLER_173_877
*11944 FILLER_173_889
*11945 FILLER_173_895
*11946 FILLER_173_897
*11947 FILLER_173_909
*11948 FILLER_173_921
*11949 FILLER_173_93
*11950 FILLER_173_933
*11951 FILLER_173_945
*11952 FILLER_173_951
*11953 FILLER_173_953
*11954 FILLER_173_965
*11955 FILLER_173_977
*11956 FILLER_173_989
*11957 FILLER_174_1005
*11958 FILLER_174_1017
*11959 FILLER_174_1029
*11960 FILLER_174_1035
*11961 FILLER_174_1037
*11962 FILLER_174_1049
*11963 FILLER_174_1061
*11964 FILLER_174_1073
*11965 FILLER_174_1085
*11966 FILLER_174_109
*11967 FILLER_174_1091
*11968 FILLER_174_1093
*11969 FILLER_174_1105
*11970 FILLER_174_1117
*11971 FILLER_174_1129
*11972 FILLER_174_1141
*11973 FILLER_174_1147
*11974 FILLER_174_1149
*11975 FILLER_174_1161
*11976 FILLER_174_1173
*11977 FILLER_174_1185
*11978 FILLER_174_1197
*11979 FILLER_174_1203
*11980 FILLER_174_1205
*11981 FILLER_174_121
*11982 FILLER_174_1217
*11983 FILLER_174_1229
*11984 FILLER_174_1241
*11985 FILLER_174_1253
*11986 FILLER_174_1259
*11987 FILLER_174_1261
*11988 FILLER_174_1273
*11989 FILLER_174_133
*11990 FILLER_174_139
*11991 FILLER_174_141
*11992 FILLER_174_15
*11993 FILLER_174_153
*11994 FILLER_174_165
*11995 FILLER_174_177
*11996 FILLER_174_189
*11997 FILLER_174_195
*11998 FILLER_174_197
*11999 FILLER_174_209
*12000 FILLER_174_221
*12001 FILLER_174_233
*12002 FILLER_174_245
*12003 FILLER_174_251
*12004 FILLER_174_253
*12005 FILLER_174_265
*12006 FILLER_174_27
*12007 FILLER_174_277
*12008 FILLER_174_289
*12009 FILLER_174_29
*12010 FILLER_174_3
*12011 FILLER_174_301
*12012 FILLER_174_307
*12013 FILLER_174_309
*12014 FILLER_174_321
*12015 FILLER_174_333
*12016 FILLER_174_345
*12017 FILLER_174_357
*12018 FILLER_174_363
*12019 FILLER_174_365
*12020 FILLER_174_377
*12021 FILLER_174_389
*12022 FILLER_174_401
*12023 FILLER_174_41
*12024 FILLER_174_413
*12025 FILLER_174_419
*12026 FILLER_174_421
*12027 FILLER_174_433
*12028 FILLER_174_445
*12029 FILLER_174_457
*12030 FILLER_174_469
*12031 FILLER_174_475
*12032 FILLER_174_477
*12033 FILLER_174_489
*12034 FILLER_174_501
*12035 FILLER_174_513
*12036 FILLER_174_525
*12037 FILLER_174_53
*12038 FILLER_174_531
*12039 FILLER_174_533
*12040 FILLER_174_545
*12041 FILLER_174_557
*12042 FILLER_174_569
*12043 FILLER_174_581
*12044 FILLER_174_587
*12045 FILLER_174_589
*12046 FILLER_174_601
*12047 FILLER_174_613
*12048 FILLER_174_625
*12049 FILLER_174_637
*12050 FILLER_174_643
*12051 FILLER_174_645
*12052 FILLER_174_65
*12053 FILLER_174_657
*12054 FILLER_174_669
*12055 FILLER_174_681
*12056 FILLER_174_693
*12057 FILLER_174_699
*12058 FILLER_174_701
*12059 FILLER_174_713
*12060 FILLER_174_725
*12061 FILLER_174_737
*12062 FILLER_174_749
*12063 FILLER_174_755
*12064 FILLER_174_757
*12065 FILLER_174_769
*12066 FILLER_174_77
*12067 FILLER_174_781
*12068 FILLER_174_793
*12069 FILLER_174_805
*12070 FILLER_174_811
*12071 FILLER_174_813
*12072 FILLER_174_825
*12073 FILLER_174_83
*12074 FILLER_174_837
*12075 FILLER_174_849
*12076 FILLER_174_85
*12077 FILLER_174_861
*12078 FILLER_174_867
*12079 FILLER_174_869
*12080 FILLER_174_881
*12081 FILLER_174_893
*12082 FILLER_174_905
*12083 FILLER_174_917
*12084 FILLER_174_923
*12085 FILLER_174_925
*12086 FILLER_174_937
*12087 FILLER_174_949
*12088 FILLER_174_961
*12089 FILLER_174_97
*12090 FILLER_174_973
*12091 FILLER_174_979
*12092 FILLER_174_981
*12093 FILLER_174_993
*12094 FILLER_175_1001
*12095 FILLER_175_1007
*12096 FILLER_175_1009
*12097 FILLER_175_1021
*12098 FILLER_175_1033
*12099 FILLER_175_1045
*12100 FILLER_175_105
*12101 FILLER_175_1057
*12102 FILLER_175_1063
*12103 FILLER_175_1065
*12104 FILLER_175_1077
*12105 FILLER_175_1089
*12106 FILLER_175_1101
*12107 FILLER_175_111
*12108 FILLER_175_1113
*12109 FILLER_175_1119
*12110 FILLER_175_1121
*12111 FILLER_175_113
*12112 FILLER_175_1133
*12113 FILLER_175_1145
*12114 FILLER_175_1157
*12115 FILLER_175_1169
*12116 FILLER_175_1175
*12117 FILLER_175_1177
*12118 FILLER_175_1189
*12119 FILLER_175_1201
*12120 FILLER_175_1213
*12121 FILLER_175_1225
*12122 FILLER_175_1231
*12123 FILLER_175_1233
*12124 FILLER_175_1245
*12125 FILLER_175_125
*12126 FILLER_175_1257
*12127 FILLER_175_1269
*12128 FILLER_175_137
*12129 FILLER_175_149
*12130 FILLER_175_15
*12131 FILLER_175_161
*12132 FILLER_175_167
*12133 FILLER_175_169
*12134 FILLER_175_181
*12135 FILLER_175_193
*12136 FILLER_175_205
*12137 FILLER_175_217
*12138 FILLER_175_223
*12139 FILLER_175_225
*12140 FILLER_175_237
*12141 FILLER_175_249
*12142 FILLER_175_261
*12143 FILLER_175_27
*12144 FILLER_175_273
*12145 FILLER_175_279
*12146 FILLER_175_281
*12147 FILLER_175_293
*12148 FILLER_175_3
*12149 FILLER_175_305
*12150 FILLER_175_317
*12151 FILLER_175_329
*12152 FILLER_175_335
*12153 FILLER_175_337
*12154 FILLER_175_349
*12155 FILLER_175_361
*12156 FILLER_175_373
*12157 FILLER_175_385
*12158 FILLER_175_39
*12159 FILLER_175_391
*12160 FILLER_175_393
*12161 FILLER_175_405
*12162 FILLER_175_417
*12163 FILLER_175_429
*12164 FILLER_175_441
*12165 FILLER_175_447
*12166 FILLER_175_449
*12167 FILLER_175_461
*12168 FILLER_175_473
*12169 FILLER_175_485
*12170 FILLER_175_497
*12171 FILLER_175_503
*12172 FILLER_175_505
*12173 FILLER_175_51
*12174 FILLER_175_517
*12175 FILLER_175_529
*12176 FILLER_175_541
*12177 FILLER_175_55
*12178 FILLER_175_553
*12179 FILLER_175_559
*12180 FILLER_175_561
*12181 FILLER_175_57
*12182 FILLER_175_573
*12183 FILLER_175_585
*12184 FILLER_175_597
*12185 FILLER_175_609
*12186 FILLER_175_615
*12187 FILLER_175_617
*12188 FILLER_175_629
*12189 FILLER_175_641
*12190 FILLER_175_653
*12191 FILLER_175_665
*12192 FILLER_175_671
*12193 FILLER_175_673
*12194 FILLER_175_685
*12195 FILLER_175_69
*12196 FILLER_175_697
*12197 FILLER_175_709
*12198 FILLER_175_721
*12199 FILLER_175_727
*12200 FILLER_175_729
*12201 FILLER_175_741
*12202 FILLER_175_753
*12203 FILLER_175_765
*12204 FILLER_175_777
*12205 FILLER_175_783
*12206 FILLER_175_785
*12207 FILLER_175_797
*12208 FILLER_175_809
*12209 FILLER_175_81
*12210 FILLER_175_821
*12211 FILLER_175_833
*12212 FILLER_175_839
*12213 FILLER_175_841
*12214 FILLER_175_853
*12215 FILLER_175_865
*12216 FILLER_175_877
*12217 FILLER_175_889
*12218 FILLER_175_895
*12219 FILLER_175_897
*12220 FILLER_175_909
*12221 FILLER_175_921
*12222 FILLER_175_93
*12223 FILLER_175_933
*12224 FILLER_175_945
*12225 FILLER_175_951
*12226 FILLER_175_953
*12227 FILLER_175_965
*12228 FILLER_175_977
*12229 FILLER_175_989
*12230 FILLER_176_1005
*12231 FILLER_176_1017
*12232 FILLER_176_1029
*12233 FILLER_176_1035
*12234 FILLER_176_1037
*12235 FILLER_176_1049
*12236 FILLER_176_1061
*12237 FILLER_176_1073
*12238 FILLER_176_1085
*12239 FILLER_176_109
*12240 FILLER_176_1091
*12241 FILLER_176_1093
*12242 FILLER_176_1105
*12243 FILLER_176_1117
*12244 FILLER_176_1129
*12245 FILLER_176_1141
*12246 FILLER_176_1147
*12247 FILLER_176_1149
*12248 FILLER_176_1161
*12249 FILLER_176_1173
*12250 FILLER_176_1185
*12251 FILLER_176_1197
*12252 FILLER_176_1203
*12253 FILLER_176_1205
*12254 FILLER_176_121
*12255 FILLER_176_1217
*12256 FILLER_176_1229
*12257 FILLER_176_1241
*12258 FILLER_176_1253
*12259 FILLER_176_1259
*12260 FILLER_176_1261
*12261 FILLER_176_1273
*12262 FILLER_176_133
*12263 FILLER_176_139
*12264 FILLER_176_141
*12265 FILLER_176_15
*12266 FILLER_176_153
*12267 FILLER_176_165
*12268 FILLER_176_177
*12269 FILLER_176_189
*12270 FILLER_176_195
*12271 FILLER_176_197
*12272 FILLER_176_209
*12273 FILLER_176_221
*12274 FILLER_176_233
*12275 FILLER_176_245
*12276 FILLER_176_251
*12277 FILLER_176_253
*12278 FILLER_176_265
*12279 FILLER_176_27
*12280 FILLER_176_277
*12281 FILLER_176_289
*12282 FILLER_176_29
*12283 FILLER_176_3
*12284 FILLER_176_301
*12285 FILLER_176_307
*12286 FILLER_176_309
*12287 FILLER_176_321
*12288 FILLER_176_333
*12289 FILLER_176_345
*12290 FILLER_176_357
*12291 FILLER_176_363
*12292 FILLER_176_365
*12293 FILLER_176_377
*12294 FILLER_176_389
*12295 FILLER_176_401
*12296 FILLER_176_41
*12297 FILLER_176_413
*12298 FILLER_176_419
*12299 FILLER_176_421
*12300 FILLER_176_433
*12301 FILLER_176_445
*12302 FILLER_176_457
*12303 FILLER_176_469
*12304 FILLER_176_475
*12305 FILLER_176_477
*12306 FILLER_176_489
*12307 FILLER_176_501
*12308 FILLER_176_513
*12309 FILLER_176_525
*12310 FILLER_176_53
*12311 FILLER_176_531
*12312 FILLER_176_533
*12313 FILLER_176_545
*12314 FILLER_176_557
*12315 FILLER_176_569
*12316 FILLER_176_581
*12317 FILLER_176_587
*12318 FILLER_176_589
*12319 FILLER_176_601
*12320 FILLER_176_613
*12321 FILLER_176_625
*12322 FILLER_176_637
*12323 FILLER_176_643
*12324 FILLER_176_645
*12325 FILLER_176_65
*12326 FILLER_176_657
*12327 FILLER_176_669
*12328 FILLER_176_681
*12329 FILLER_176_693
*12330 FILLER_176_699
*12331 FILLER_176_701
*12332 FILLER_176_713
*12333 FILLER_176_725
*12334 FILLER_176_737
*12335 FILLER_176_749
*12336 FILLER_176_755
*12337 FILLER_176_757
*12338 FILLER_176_769
*12339 FILLER_176_77
*12340 FILLER_176_781
*12341 FILLER_176_793
*12342 FILLER_176_805
*12343 FILLER_176_811
*12344 FILLER_176_813
*12345 FILLER_176_825
*12346 FILLER_176_83
*12347 FILLER_176_837
*12348 FILLER_176_849
*12349 FILLER_176_85
*12350 FILLER_176_861
*12351 FILLER_176_867
*12352 FILLER_176_869
*12353 FILLER_176_881
*12354 FILLER_176_893
*12355 FILLER_176_905
*12356 FILLER_176_917
*12357 FILLER_176_923
*12358 FILLER_176_925
*12359 FILLER_176_937
*12360 FILLER_176_949
*12361 FILLER_176_961
*12362 FILLER_176_97
*12363 FILLER_176_973
*12364 FILLER_176_979
*12365 FILLER_176_981
*12366 FILLER_176_993
*12367 FILLER_177_1001
*12368 FILLER_177_1007
*12369 FILLER_177_1009
*12370 FILLER_177_1021
*12371 FILLER_177_1033
*12372 FILLER_177_1045
*12373 FILLER_177_105
*12374 FILLER_177_1057
*12375 FILLER_177_1063
*12376 FILLER_177_1065
*12377 FILLER_177_1077
*12378 FILLER_177_1089
*12379 FILLER_177_1101
*12380 FILLER_177_111
*12381 FILLER_177_1113
*12382 FILLER_177_1119
*12383 FILLER_177_1121
*12384 FILLER_177_113
*12385 FILLER_177_1133
*12386 FILLER_177_1145
*12387 FILLER_177_1157
*12388 FILLER_177_1169
*12389 FILLER_177_1175
*12390 FILLER_177_1177
*12391 FILLER_177_1189
*12392 FILLER_177_1201
*12393 FILLER_177_1213
*12394 FILLER_177_1225
*12395 FILLER_177_1231
*12396 FILLER_177_1233
*12397 FILLER_177_1245
*12398 FILLER_177_125
*12399 FILLER_177_1257
*12400 FILLER_177_1269
*12401 FILLER_177_137
*12402 FILLER_177_149
*12403 FILLER_177_15
*12404 FILLER_177_161
*12405 FILLER_177_167
*12406 FILLER_177_169
*12407 FILLER_177_181
*12408 FILLER_177_193
*12409 FILLER_177_205
*12410 FILLER_177_217
*12411 FILLER_177_223
*12412 FILLER_177_225
*12413 FILLER_177_237
*12414 FILLER_177_249
*12415 FILLER_177_261
*12416 FILLER_177_27
*12417 FILLER_177_273
*12418 FILLER_177_279
*12419 FILLER_177_281
*12420 FILLER_177_293
*12421 FILLER_177_3
*12422 FILLER_177_305
*12423 FILLER_177_317
*12424 FILLER_177_329
*12425 FILLER_177_335
*12426 FILLER_177_337
*12427 FILLER_177_349
*12428 FILLER_177_361
*12429 FILLER_177_373
*12430 FILLER_177_385
*12431 FILLER_177_39
*12432 FILLER_177_391
*12433 FILLER_177_393
*12434 FILLER_177_405
*12435 FILLER_177_417
*12436 FILLER_177_429
*12437 FILLER_177_441
*12438 FILLER_177_447
*12439 FILLER_177_449
*12440 FILLER_177_461
*12441 FILLER_177_473
*12442 FILLER_177_485
*12443 FILLER_177_497
*12444 FILLER_177_503
*12445 FILLER_177_505
*12446 FILLER_177_51
*12447 FILLER_177_517
*12448 FILLER_177_529
*12449 FILLER_177_541
*12450 FILLER_177_55
*12451 FILLER_177_553
*12452 FILLER_177_559
*12453 FILLER_177_561
*12454 FILLER_177_57
*12455 FILLER_177_573
*12456 FILLER_177_585
*12457 FILLER_177_597
*12458 FILLER_177_609
*12459 FILLER_177_615
*12460 FILLER_177_617
*12461 FILLER_177_629
*12462 FILLER_177_641
*12463 FILLER_177_653
*12464 FILLER_177_665
*12465 FILLER_177_671
*12466 FILLER_177_673
*12467 FILLER_177_685
*12468 FILLER_177_69
*12469 FILLER_177_697
*12470 FILLER_177_709
*12471 FILLER_177_721
*12472 FILLER_177_727
*12473 FILLER_177_729
*12474 FILLER_177_741
*12475 FILLER_177_753
*12476 FILLER_177_765
*12477 FILLER_177_777
*12478 FILLER_177_783
*12479 FILLER_177_785
*12480 FILLER_177_797
*12481 FILLER_177_809
*12482 FILLER_177_81
*12483 FILLER_177_821
*12484 FILLER_177_833
*12485 FILLER_177_839
*12486 FILLER_177_841
*12487 FILLER_177_853
*12488 FILLER_177_865
*12489 FILLER_177_877
*12490 FILLER_177_889
*12491 FILLER_177_895
*12492 FILLER_177_897
*12493 FILLER_177_909
*12494 FILLER_177_921
*12495 FILLER_177_93
*12496 FILLER_177_933
*12497 FILLER_177_945
*12498 FILLER_177_951
*12499 FILLER_177_953
*12500 FILLER_177_965
*12501 FILLER_177_977
*12502 FILLER_177_989
*12503 FILLER_178_1005
*12504 FILLER_178_1017
*12505 FILLER_178_1029
*12506 FILLER_178_1035
*12507 FILLER_178_1037
*12508 FILLER_178_1049
*12509 FILLER_178_1061
*12510 FILLER_178_1073
*12511 FILLER_178_1085
*12512 FILLER_178_109
*12513 FILLER_178_1091
*12514 FILLER_178_1093
*12515 FILLER_178_1105
*12516 FILLER_178_1117
*12517 FILLER_178_1129
*12518 FILLER_178_1141
*12519 FILLER_178_1147
*12520 FILLER_178_1149
*12521 FILLER_178_1161
*12522 FILLER_178_1173
*12523 FILLER_178_1185
*12524 FILLER_178_1197
*12525 FILLER_178_1203
*12526 FILLER_178_1205
*12527 FILLER_178_121
*12528 FILLER_178_1217
*12529 FILLER_178_1229
*12530 FILLER_178_1241
*12531 FILLER_178_1253
*12532 FILLER_178_1259
*12533 FILLER_178_1261
*12534 FILLER_178_1273
*12535 FILLER_178_133
*12536 FILLER_178_139
*12537 FILLER_178_141
*12538 FILLER_178_15
*12539 FILLER_178_153
*12540 FILLER_178_165
*12541 FILLER_178_177
*12542 FILLER_178_189
*12543 FILLER_178_195
*12544 FILLER_178_197
*12545 FILLER_178_209
*12546 FILLER_178_221
*12547 FILLER_178_233
*12548 FILLER_178_245
*12549 FILLER_178_251
*12550 FILLER_178_253
*12551 FILLER_178_265
*12552 FILLER_178_27
*12553 FILLER_178_277
*12554 FILLER_178_289
*12555 FILLER_178_29
*12556 FILLER_178_3
*12557 FILLER_178_301
*12558 FILLER_178_307
*12559 FILLER_178_309
*12560 FILLER_178_321
*12561 FILLER_178_333
*12562 FILLER_178_345
*12563 FILLER_178_357
*12564 FILLER_178_363
*12565 FILLER_178_365
*12566 FILLER_178_377
*12567 FILLER_178_389
*12568 FILLER_178_401
*12569 FILLER_178_41
*12570 FILLER_178_413
*12571 FILLER_178_419
*12572 FILLER_178_421
*12573 FILLER_178_433
*12574 FILLER_178_445
*12575 FILLER_178_457
*12576 FILLER_178_469
*12577 FILLER_178_475
*12578 FILLER_178_477
*12579 FILLER_178_489
*12580 FILLER_178_501
*12581 FILLER_178_513
*12582 FILLER_178_525
*12583 FILLER_178_53
*12584 FILLER_178_531
*12585 FILLER_178_533
*12586 FILLER_178_545
*12587 FILLER_178_557
*12588 FILLER_178_569
*12589 FILLER_178_581
*12590 FILLER_178_587
*12591 FILLER_178_589
*12592 FILLER_178_601
*12593 FILLER_178_613
*12594 FILLER_178_625
*12595 FILLER_178_637
*12596 FILLER_178_643
*12597 FILLER_178_645
*12598 FILLER_178_65
*12599 FILLER_178_657
*12600 FILLER_178_669
*12601 FILLER_178_681
*12602 FILLER_178_693
*12603 FILLER_178_699
*12604 FILLER_178_701
*12605 FILLER_178_713
*12606 FILLER_178_725
*12607 FILLER_178_737
*12608 FILLER_178_749
*12609 FILLER_178_755
*12610 FILLER_178_757
*12611 FILLER_178_769
*12612 FILLER_178_77
*12613 FILLER_178_781
*12614 FILLER_178_793
*12615 FILLER_178_805
*12616 FILLER_178_811
*12617 FILLER_178_813
*12618 FILLER_178_825
*12619 FILLER_178_83
*12620 FILLER_178_837
*12621 FILLER_178_849
*12622 FILLER_178_85
*12623 FILLER_178_861
*12624 FILLER_178_867
*12625 FILLER_178_869
*12626 FILLER_178_881
*12627 FILLER_178_893
*12628 FILLER_178_905
*12629 FILLER_178_917
*12630 FILLER_178_923
*12631 FILLER_178_925
*12632 FILLER_178_937
*12633 FILLER_178_949
*12634 FILLER_178_961
*12635 FILLER_178_97
*12636 FILLER_178_973
*12637 FILLER_178_979
*12638 FILLER_178_981
*12639 FILLER_178_993
*12640 FILLER_179_1001
*12641 FILLER_179_1007
*12642 FILLER_179_1009
*12643 FILLER_179_1021
*12644 FILLER_179_1033
*12645 FILLER_179_1045
*12646 FILLER_179_105
*12647 FILLER_179_1057
*12648 FILLER_179_1063
*12649 FILLER_179_1065
*12650 FILLER_179_1077
*12651 FILLER_179_1089
*12652 FILLER_179_1101
*12653 FILLER_179_111
*12654 FILLER_179_1113
*12655 FILLER_179_1119
*12656 FILLER_179_1121
*12657 FILLER_179_113
*12658 FILLER_179_1133
*12659 FILLER_179_1145
*12660 FILLER_179_1157
*12661 FILLER_179_1169
*12662 FILLER_179_1175
*12663 FILLER_179_1177
*12664 FILLER_179_1189
*12665 FILLER_179_1201
*12666 FILLER_179_1213
*12667 FILLER_179_1225
*12668 FILLER_179_1231
*12669 FILLER_179_1233
*12670 FILLER_179_1245
*12671 FILLER_179_125
*12672 FILLER_179_1257
*12673 FILLER_179_1269
*12674 FILLER_179_137
*12675 FILLER_179_149
*12676 FILLER_179_15
*12677 FILLER_179_161
*12678 FILLER_179_167
*12679 FILLER_179_169
*12680 FILLER_179_181
*12681 FILLER_179_193
*12682 FILLER_179_205
*12683 FILLER_179_217
*12684 FILLER_179_223
*12685 FILLER_179_225
*12686 FILLER_179_237
*12687 FILLER_179_249
*12688 FILLER_179_261
*12689 FILLER_179_27
*12690 FILLER_179_273
*12691 FILLER_179_279
*12692 FILLER_179_281
*12693 FILLER_179_293
*12694 FILLER_179_3
*12695 FILLER_179_305
*12696 FILLER_179_317
*12697 FILLER_179_329
*12698 FILLER_179_335
*12699 FILLER_179_337
*12700 FILLER_179_349
*12701 FILLER_179_361
*12702 FILLER_179_373
*12703 FILLER_179_385
*12704 FILLER_179_39
*12705 FILLER_179_391
*12706 FILLER_179_393
*12707 FILLER_179_405
*12708 FILLER_179_417
*12709 FILLER_179_429
*12710 FILLER_179_441
*12711 FILLER_179_447
*12712 FILLER_179_449
*12713 FILLER_179_461
*12714 FILLER_179_473
*12715 FILLER_179_485
*12716 FILLER_179_497
*12717 FILLER_179_503
*12718 FILLER_179_505
*12719 FILLER_179_51
*12720 FILLER_179_517
*12721 FILLER_179_529
*12722 FILLER_179_541
*12723 FILLER_179_55
*12724 FILLER_179_553
*12725 FILLER_179_559
*12726 FILLER_179_561
*12727 FILLER_179_57
*12728 FILLER_179_573
*12729 FILLER_179_585
*12730 FILLER_179_597
*12731 FILLER_179_609
*12732 FILLER_179_615
*12733 FILLER_179_617
*12734 FILLER_179_629
*12735 FILLER_179_641
*12736 FILLER_179_653
*12737 FILLER_179_665
*12738 FILLER_179_671
*12739 FILLER_179_673
*12740 FILLER_179_685
*12741 FILLER_179_69
*12742 FILLER_179_697
*12743 FILLER_179_709
*12744 FILLER_179_721
*12745 FILLER_179_727
*12746 FILLER_179_729
*12747 FILLER_179_741
*12748 FILLER_179_753
*12749 FILLER_179_765
*12750 FILLER_179_777
*12751 FILLER_179_783
*12752 FILLER_179_785
*12753 FILLER_179_797
*12754 FILLER_179_809
*12755 FILLER_179_81
*12756 FILLER_179_821
*12757 FILLER_179_833
*12758 FILLER_179_839
*12759 FILLER_179_841
*12760 FILLER_179_853
*12761 FILLER_179_865
*12762 FILLER_179_877
*12763 FILLER_179_889
*12764 FILLER_179_895
*12765 FILLER_179_897
*12766 FILLER_179_909
*12767 FILLER_179_921
*12768 FILLER_179_93
*12769 FILLER_179_933
*12770 FILLER_179_945
*12771 FILLER_179_951
*12772 FILLER_179_953
*12773 FILLER_179_965
*12774 FILLER_179_977
*12775 FILLER_179_989
*12776 FILLER_17_1001
*12777 FILLER_17_1007
*12778 FILLER_17_1009
*12779 FILLER_17_1021
*12780 FILLER_17_1033
*12781 FILLER_17_1045
*12782 FILLER_17_105
*12783 FILLER_17_1057
*12784 FILLER_17_1063
*12785 FILLER_17_1065
*12786 FILLER_17_1077
*12787 FILLER_17_1089
*12788 FILLER_17_1101
*12789 FILLER_17_111
*12790 FILLER_17_1113
*12791 FILLER_17_1119
*12792 FILLER_17_1121
*12793 FILLER_17_113
*12794 FILLER_17_1133
*12795 FILLER_17_1145
*12796 FILLER_17_1157
*12797 FILLER_17_1169
*12798 FILLER_17_1175
*12799 FILLER_17_1177
*12800 FILLER_17_1189
*12801 FILLER_17_1201
*12802 FILLER_17_1213
*12803 FILLER_17_1225
*12804 FILLER_17_1231
*12805 FILLER_17_1233
*12806 FILLER_17_1245
*12807 FILLER_17_125
*12808 FILLER_17_1257
*12809 FILLER_17_1269
*12810 FILLER_17_137
*12811 FILLER_17_149
*12812 FILLER_17_15
*12813 FILLER_17_161
*12814 FILLER_17_167
*12815 FILLER_17_169
*12816 FILLER_17_181
*12817 FILLER_17_193
*12818 FILLER_17_205
*12819 FILLER_17_217
*12820 FILLER_17_223
*12821 FILLER_17_225
*12822 FILLER_17_237
*12823 FILLER_17_249
*12824 FILLER_17_261
*12825 FILLER_17_27
*12826 FILLER_17_273
*12827 FILLER_17_279
*12828 FILLER_17_281
*12829 FILLER_17_293
*12830 FILLER_17_3
*12831 FILLER_17_305
*12832 FILLER_17_317
*12833 FILLER_17_329
*12834 FILLER_17_335
*12835 FILLER_17_337
*12836 FILLER_17_349
*12837 FILLER_17_361
*12838 FILLER_17_373
*12839 FILLER_17_385
*12840 FILLER_17_39
*12841 FILLER_17_391
*12842 FILLER_17_393
*12843 FILLER_17_405
*12844 FILLER_17_417
*12845 FILLER_17_429
*12846 FILLER_17_441
*12847 FILLER_17_447
*12848 FILLER_17_449
*12849 FILLER_17_461
*12850 FILLER_17_473
*12851 FILLER_17_485
*12852 FILLER_17_497
*12853 FILLER_17_503
*12854 FILLER_17_505
*12855 FILLER_17_51
*12856 FILLER_17_517
*12857 FILLER_17_529
*12858 FILLER_17_541
*12859 FILLER_17_55
*12860 FILLER_17_553
*12861 FILLER_17_559
*12862 FILLER_17_561
*12863 FILLER_17_57
*12864 FILLER_17_573
*12865 FILLER_17_585
*12866 FILLER_17_597
*12867 FILLER_17_609
*12868 FILLER_17_615
*12869 FILLER_17_617
*12870 FILLER_17_629
*12871 FILLER_17_641
*12872 FILLER_17_653
*12873 FILLER_17_665
*12874 FILLER_17_671
*12875 FILLER_17_673
*12876 FILLER_17_685
*12877 FILLER_17_69
*12878 FILLER_17_697
*12879 FILLER_17_709
*12880 FILLER_17_721
*12881 FILLER_17_727
*12882 FILLER_17_729
*12883 FILLER_17_741
*12884 FILLER_17_753
*12885 FILLER_17_765
*12886 FILLER_17_777
*12887 FILLER_17_783
*12888 FILLER_17_785
*12889 FILLER_17_797
*12890 FILLER_17_809
*12891 FILLER_17_81
*12892 FILLER_17_821
*12893 FILLER_17_833
*12894 FILLER_17_839
*12895 FILLER_17_841
*12896 FILLER_17_853
*12897 FILLER_17_865
*12898 FILLER_17_877
*12899 FILLER_17_889
*12900 FILLER_17_895
*12901 FILLER_17_897
*12902 FILLER_17_909
*12903 FILLER_17_921
*12904 FILLER_17_93
*12905 FILLER_17_933
*12906 FILLER_17_945
*12907 FILLER_17_951
*12908 FILLER_17_953
*12909 FILLER_17_965
*12910 FILLER_17_977
*12911 FILLER_17_989
*12912 FILLER_180_1005
*12913 FILLER_180_1017
*12914 FILLER_180_1029
*12915 FILLER_180_1035
*12916 FILLER_180_1037
*12917 FILLER_180_1049
*12918 FILLER_180_1061
*12919 FILLER_180_1073
*12920 FILLER_180_1085
*12921 FILLER_180_109
*12922 FILLER_180_1091
*12923 FILLER_180_1093
*12924 FILLER_180_1105
*12925 FILLER_180_1117
*12926 FILLER_180_1129
*12927 FILLER_180_1141
*12928 FILLER_180_1147
*12929 FILLER_180_1149
*12930 FILLER_180_1161
*12931 FILLER_180_1173
*12932 FILLER_180_1185
*12933 FILLER_180_1197
*12934 FILLER_180_1203
*12935 FILLER_180_1205
*12936 FILLER_180_121
*12937 FILLER_180_1217
*12938 FILLER_180_1229
*12939 FILLER_180_1241
*12940 FILLER_180_1253
*12941 FILLER_180_1259
*12942 FILLER_180_1261
*12943 FILLER_180_1273
*12944 FILLER_180_133
*12945 FILLER_180_139
*12946 FILLER_180_141
*12947 FILLER_180_15
*12948 FILLER_180_153
*12949 FILLER_180_165
*12950 FILLER_180_177
*12951 FILLER_180_189
*12952 FILLER_180_195
*12953 FILLER_180_197
*12954 FILLER_180_209
*12955 FILLER_180_221
*12956 FILLER_180_233
*12957 FILLER_180_245
*12958 FILLER_180_251
*12959 FILLER_180_253
*12960 FILLER_180_265
*12961 FILLER_180_27
*12962 FILLER_180_277
*12963 FILLER_180_289
*12964 FILLER_180_29
*12965 FILLER_180_3
*12966 FILLER_180_301
*12967 FILLER_180_307
*12968 FILLER_180_309
*12969 FILLER_180_321
*12970 FILLER_180_333
*12971 FILLER_180_345
*12972 FILLER_180_357
*12973 FILLER_180_363
*12974 FILLER_180_365
*12975 FILLER_180_377
*12976 FILLER_180_389
*12977 FILLER_180_401
*12978 FILLER_180_41
*12979 FILLER_180_413
*12980 FILLER_180_419
*12981 FILLER_180_421
*12982 FILLER_180_433
*12983 FILLER_180_445
*12984 FILLER_180_457
*12985 FILLER_180_469
*12986 FILLER_180_475
*12987 FILLER_180_477
*12988 FILLER_180_489
*12989 FILLER_180_501
*12990 FILLER_180_513
*12991 FILLER_180_525
*12992 FILLER_180_53
*12993 FILLER_180_531
*12994 FILLER_180_533
*12995 FILLER_180_545
*12996 FILLER_180_557
*12997 FILLER_180_569
*12998 FILLER_180_581
*12999 FILLER_180_587
*13000 FILLER_180_589
*13001 FILLER_180_601
*13002 FILLER_180_613
*13003 FILLER_180_625
*13004 FILLER_180_637
*13005 FILLER_180_643
*13006 FILLER_180_645
*13007 FILLER_180_65
*13008 FILLER_180_657
*13009 FILLER_180_669
*13010 FILLER_180_681
*13011 FILLER_180_693
*13012 FILLER_180_699
*13013 FILLER_180_701
*13014 FILLER_180_713
*13015 FILLER_180_725
*13016 FILLER_180_737
*13017 FILLER_180_749
*13018 FILLER_180_755
*13019 FILLER_180_757
*13020 FILLER_180_769
*13021 FILLER_180_77
*13022 FILLER_180_781
*13023 FILLER_180_793
*13024 FILLER_180_805
*13025 FILLER_180_811
*13026 FILLER_180_813
*13027 FILLER_180_825
*13028 FILLER_180_83
*13029 FILLER_180_837
*13030 FILLER_180_849
*13031 FILLER_180_85
*13032 FILLER_180_861
*13033 FILLER_180_867
*13034 FILLER_180_869
*13035 FILLER_180_881
*13036 FILLER_180_893
*13037 FILLER_180_905
*13038 FILLER_180_917
*13039 FILLER_180_923
*13040 FILLER_180_925
*13041 FILLER_180_937
*13042 FILLER_180_949
*13043 FILLER_180_961
*13044 FILLER_180_97
*13045 FILLER_180_973
*13046 FILLER_180_979
*13047 FILLER_180_981
*13048 FILLER_180_993
*13049 FILLER_181_1001
*13050 FILLER_181_1007
*13051 FILLER_181_1009
*13052 FILLER_181_1021
*13053 FILLER_181_1033
*13054 FILLER_181_1045
*13055 FILLER_181_105
*13056 FILLER_181_1057
*13057 FILLER_181_1063
*13058 FILLER_181_1065
*13059 FILLER_181_1077
*13060 FILLER_181_1089
*13061 FILLER_181_1101
*13062 FILLER_181_111
*13063 FILLER_181_1113
*13064 FILLER_181_1119
*13065 FILLER_181_1121
*13066 FILLER_181_113
*13067 FILLER_181_1133
*13068 FILLER_181_1145
*13069 FILLER_181_1157
*13070 FILLER_181_1169
*13071 FILLER_181_1175
*13072 FILLER_181_1177
*13073 FILLER_181_1189
*13074 FILLER_181_1201
*13075 FILLER_181_1213
*13076 FILLER_181_1225
*13077 FILLER_181_1231
*13078 FILLER_181_1233
*13079 FILLER_181_1245
*13080 FILLER_181_125
*13081 FILLER_181_1257
*13082 FILLER_181_1269
*13083 FILLER_181_137
*13084 FILLER_181_149
*13085 FILLER_181_15
*13086 FILLER_181_161
*13087 FILLER_181_167
*13088 FILLER_181_169
*13089 FILLER_181_181
*13090 FILLER_181_193
*13091 FILLER_181_205
*13092 FILLER_181_217
*13093 FILLER_181_223
*13094 FILLER_181_225
*13095 FILLER_181_237
*13096 FILLER_181_249
*13097 FILLER_181_261
*13098 FILLER_181_27
*13099 FILLER_181_273
*13100 FILLER_181_279
*13101 FILLER_181_281
*13102 FILLER_181_293
*13103 FILLER_181_3
*13104 FILLER_181_305
*13105 FILLER_181_317
*13106 FILLER_181_329
*13107 FILLER_181_335
*13108 FILLER_181_337
*13109 FILLER_181_349
*13110 FILLER_181_361
*13111 FILLER_181_373
*13112 FILLER_181_385
*13113 FILLER_181_39
*13114 FILLER_181_391
*13115 FILLER_181_393
*13116 FILLER_181_405
*13117 FILLER_181_417
*13118 FILLER_181_429
*13119 FILLER_181_441
*13120 FILLER_181_447
*13121 FILLER_181_449
*13122 FILLER_181_461
*13123 FILLER_181_473
*13124 FILLER_181_485
*13125 FILLER_181_497
*13126 FILLER_181_503
*13127 FILLER_181_505
*13128 FILLER_181_51
*13129 FILLER_181_517
*13130 FILLER_181_529
*13131 FILLER_181_541
*13132 FILLER_181_55
*13133 FILLER_181_553
*13134 FILLER_181_559
*13135 FILLER_181_561
*13136 FILLER_181_57
*13137 FILLER_181_573
*13138 FILLER_181_585
*13139 FILLER_181_597
*13140 FILLER_181_609
*13141 FILLER_181_615
*13142 FILLER_181_617
*13143 FILLER_181_629
*13144 FILLER_181_641
*13145 FILLER_181_653
*13146 FILLER_181_665
*13147 FILLER_181_671
*13148 FILLER_181_673
*13149 FILLER_181_685
*13150 FILLER_181_69
*13151 FILLER_181_697
*13152 FILLER_181_709
*13153 FILLER_181_721
*13154 FILLER_181_727
*13155 FILLER_181_729
*13156 FILLER_181_741
*13157 FILLER_181_753
*13158 FILLER_181_765
*13159 FILLER_181_777
*13160 FILLER_181_783
*13161 FILLER_181_785
*13162 FILLER_181_797
*13163 FILLER_181_809
*13164 FILLER_181_81
*13165 FILLER_181_821
*13166 FILLER_181_833
*13167 FILLER_181_839
*13168 FILLER_181_841
*13169 FILLER_181_853
*13170 FILLER_181_865
*13171 FILLER_181_877
*13172 FILLER_181_889
*13173 FILLER_181_895
*13174 FILLER_181_897
*13175 FILLER_181_909
*13176 FILLER_181_921
*13177 FILLER_181_93
*13178 FILLER_181_933
*13179 FILLER_181_945
*13180 FILLER_181_951
*13181 FILLER_181_953
*13182 FILLER_181_965
*13183 FILLER_181_977
*13184 FILLER_181_989
*13185 FILLER_182_1005
*13186 FILLER_182_1017
*13187 FILLER_182_1029
*13188 FILLER_182_1035
*13189 FILLER_182_1037
*13190 FILLER_182_1049
*13191 FILLER_182_1061
*13192 FILLER_182_1073
*13193 FILLER_182_1085
*13194 FILLER_182_109
*13195 FILLER_182_1091
*13196 FILLER_182_1093
*13197 FILLER_182_1105
*13198 FILLER_182_1117
*13199 FILLER_182_1129
*13200 FILLER_182_1141
*13201 FILLER_182_1147
*13202 FILLER_182_1149
*13203 FILLER_182_1161
*13204 FILLER_182_1173
*13205 FILLER_182_1185
*13206 FILLER_182_1197
*13207 FILLER_182_1203
*13208 FILLER_182_1205
*13209 FILLER_182_121
*13210 FILLER_182_1217
*13211 FILLER_182_1229
*13212 FILLER_182_1241
*13213 FILLER_182_1253
*13214 FILLER_182_1259
*13215 FILLER_182_1261
*13216 FILLER_182_1273
*13217 FILLER_182_133
*13218 FILLER_182_139
*13219 FILLER_182_141
*13220 FILLER_182_15
*13221 FILLER_182_153
*13222 FILLER_182_165
*13223 FILLER_182_177
*13224 FILLER_182_189
*13225 FILLER_182_195
*13226 FILLER_182_197
*13227 FILLER_182_209
*13228 FILLER_182_221
*13229 FILLER_182_233
*13230 FILLER_182_245
*13231 FILLER_182_251
*13232 FILLER_182_253
*13233 FILLER_182_265
*13234 FILLER_182_27
*13235 FILLER_182_277
*13236 FILLER_182_289
*13237 FILLER_182_29
*13238 FILLER_182_3
*13239 FILLER_182_301
*13240 FILLER_182_307
*13241 FILLER_182_309
*13242 FILLER_182_321
*13243 FILLER_182_333
*13244 FILLER_182_345
*13245 FILLER_182_357
*13246 FILLER_182_363
*13247 FILLER_182_365
*13248 FILLER_182_377
*13249 FILLER_182_389
*13250 FILLER_182_401
*13251 FILLER_182_41
*13252 FILLER_182_413
*13253 FILLER_182_419
*13254 FILLER_182_421
*13255 FILLER_182_433
*13256 FILLER_182_445
*13257 FILLER_182_457
*13258 FILLER_182_469
*13259 FILLER_182_475
*13260 FILLER_182_477
*13261 FILLER_182_489
*13262 FILLER_182_501
*13263 FILLER_182_513
*13264 FILLER_182_525
*13265 FILLER_182_53
*13266 FILLER_182_531
*13267 FILLER_182_533
*13268 FILLER_182_545
*13269 FILLER_182_557
*13270 FILLER_182_569
*13271 FILLER_182_581
*13272 FILLER_182_587
*13273 FILLER_182_589
*13274 FILLER_182_601
*13275 FILLER_182_613
*13276 FILLER_182_625
*13277 FILLER_182_637
*13278 FILLER_182_643
*13279 FILLER_182_645
*13280 FILLER_182_65
*13281 FILLER_182_657
*13282 FILLER_182_669
*13283 FILLER_182_681
*13284 FILLER_182_693
*13285 FILLER_182_699
*13286 FILLER_182_701
*13287 FILLER_182_713
*13288 FILLER_182_725
*13289 FILLER_182_737
*13290 FILLER_182_749
*13291 FILLER_182_755
*13292 FILLER_182_757
*13293 FILLER_182_769
*13294 FILLER_182_77
*13295 FILLER_182_781
*13296 FILLER_182_793
*13297 FILLER_182_805
*13298 FILLER_182_811
*13299 FILLER_182_813
*13300 FILLER_182_825
*13301 FILLER_182_83
*13302 FILLER_182_837
*13303 FILLER_182_849
*13304 FILLER_182_85
*13305 FILLER_182_861
*13306 FILLER_182_867
*13307 FILLER_182_869
*13308 FILLER_182_881
*13309 FILLER_182_893
*13310 FILLER_182_905
*13311 FILLER_182_917
*13312 FILLER_182_923
*13313 FILLER_182_925
*13314 FILLER_182_937
*13315 FILLER_182_949
*13316 FILLER_182_961
*13317 FILLER_182_97
*13318 FILLER_182_973
*13319 FILLER_182_979
*13320 FILLER_182_981
*13321 FILLER_182_993
*13322 FILLER_183_1001
*13323 FILLER_183_1007
*13324 FILLER_183_1009
*13325 FILLER_183_1021
*13326 FILLER_183_1033
*13327 FILLER_183_1045
*13328 FILLER_183_105
*13329 FILLER_183_1057
*13330 FILLER_183_1063
*13331 FILLER_183_1065
*13332 FILLER_183_1077
*13333 FILLER_183_1089
*13334 FILLER_183_1101
*13335 FILLER_183_111
*13336 FILLER_183_1113
*13337 FILLER_183_1119
*13338 FILLER_183_1121
*13339 FILLER_183_113
*13340 FILLER_183_1133
*13341 FILLER_183_1145
*13342 FILLER_183_1157
*13343 FILLER_183_1169
*13344 FILLER_183_1175
*13345 FILLER_183_1177
*13346 FILLER_183_1189
*13347 FILLER_183_1201
*13348 FILLER_183_1213
*13349 FILLER_183_1225
*13350 FILLER_183_1231
*13351 FILLER_183_1233
*13352 FILLER_183_1245
*13353 FILLER_183_125
*13354 FILLER_183_1257
*13355 FILLER_183_1269
*13356 FILLER_183_137
*13357 FILLER_183_149
*13358 FILLER_183_15
*13359 FILLER_183_161
*13360 FILLER_183_167
*13361 FILLER_183_169
*13362 FILLER_183_181
*13363 FILLER_183_193
*13364 FILLER_183_205
*13365 FILLER_183_217
*13366 FILLER_183_223
*13367 FILLER_183_225
*13368 FILLER_183_237
*13369 FILLER_183_249
*13370 FILLER_183_261
*13371 FILLER_183_27
*13372 FILLER_183_273
*13373 FILLER_183_279
*13374 FILLER_183_281
*13375 FILLER_183_293
*13376 FILLER_183_3
*13377 FILLER_183_305
*13378 FILLER_183_317
*13379 FILLER_183_329
*13380 FILLER_183_335
*13381 FILLER_183_337
*13382 FILLER_183_349
*13383 FILLER_183_361
*13384 FILLER_183_373
*13385 FILLER_183_385
*13386 FILLER_183_39
*13387 FILLER_183_391
*13388 FILLER_183_393
*13389 FILLER_183_405
*13390 FILLER_183_417
*13391 FILLER_183_429
*13392 FILLER_183_441
*13393 FILLER_183_447
*13394 FILLER_183_449
*13395 FILLER_183_461
*13396 FILLER_183_473
*13397 FILLER_183_485
*13398 FILLER_183_497
*13399 FILLER_183_503
*13400 FILLER_183_505
*13401 FILLER_183_51
*13402 FILLER_183_517
*13403 FILLER_183_529
*13404 FILLER_183_541
*13405 FILLER_183_55
*13406 FILLER_183_553
*13407 FILLER_183_559
*13408 FILLER_183_561
*13409 FILLER_183_57
*13410 FILLER_183_573
*13411 FILLER_183_585
*13412 FILLER_183_597
*13413 FILLER_183_609
*13414 FILLER_183_615
*13415 FILLER_183_617
*13416 FILLER_183_629
*13417 FILLER_183_641
*13418 FILLER_183_653
*13419 FILLER_183_665
*13420 FILLER_183_671
*13421 FILLER_183_673
*13422 FILLER_183_685
*13423 FILLER_183_69
*13424 FILLER_183_697
*13425 FILLER_183_709
*13426 FILLER_183_721
*13427 FILLER_183_727
*13428 FILLER_183_729
*13429 FILLER_183_741
*13430 FILLER_183_753
*13431 FILLER_183_765
*13432 FILLER_183_777
*13433 FILLER_183_783
*13434 FILLER_183_785
*13435 FILLER_183_797
*13436 FILLER_183_809
*13437 FILLER_183_81
*13438 FILLER_183_821
*13439 FILLER_183_833
*13440 FILLER_183_839
*13441 FILLER_183_841
*13442 FILLER_183_853
*13443 FILLER_183_865
*13444 FILLER_183_877
*13445 FILLER_183_889
*13446 FILLER_183_895
*13447 FILLER_183_897
*13448 FILLER_183_909
*13449 FILLER_183_921
*13450 FILLER_183_93
*13451 FILLER_183_933
*13452 FILLER_183_945
*13453 FILLER_183_951
*13454 FILLER_183_953
*13455 FILLER_183_965
*13456 FILLER_183_977
*13457 FILLER_183_989
*13458 FILLER_184_1005
*13459 FILLER_184_1017
*13460 FILLER_184_1029
*13461 FILLER_184_1035
*13462 FILLER_184_1037
*13463 FILLER_184_1049
*13464 FILLER_184_1061
*13465 FILLER_184_1073
*13466 FILLER_184_1085
*13467 FILLER_184_109
*13468 FILLER_184_1091
*13469 FILLER_184_1093
*13470 FILLER_184_1105
*13471 FILLER_184_1117
*13472 FILLER_184_1129
*13473 FILLER_184_1141
*13474 FILLER_184_1147
*13475 FILLER_184_1149
*13476 FILLER_184_1161
*13477 FILLER_184_1173
*13478 FILLER_184_1185
*13479 FILLER_184_1197
*13480 FILLER_184_1203
*13481 FILLER_184_1205
*13482 FILLER_184_121
*13483 FILLER_184_1217
*13484 FILLER_184_1229
*13485 FILLER_184_1241
*13486 FILLER_184_1253
*13487 FILLER_184_1259
*13488 FILLER_184_1261
*13489 FILLER_184_1273
*13490 FILLER_184_133
*13491 FILLER_184_139
*13492 FILLER_184_141
*13493 FILLER_184_15
*13494 FILLER_184_153
*13495 FILLER_184_165
*13496 FILLER_184_177
*13497 FILLER_184_189
*13498 FILLER_184_195
*13499 FILLER_184_197
*13500 FILLER_184_209
*13501 FILLER_184_221
*13502 FILLER_184_233
*13503 FILLER_184_245
*13504 FILLER_184_251
*13505 FILLER_184_253
*13506 FILLER_184_265
*13507 FILLER_184_27
*13508 FILLER_184_277
*13509 FILLER_184_289
*13510 FILLER_184_29
*13511 FILLER_184_3
*13512 FILLER_184_301
*13513 FILLER_184_307
*13514 FILLER_184_309
*13515 FILLER_184_321
*13516 FILLER_184_333
*13517 FILLER_184_345
*13518 FILLER_184_357
*13519 FILLER_184_363
*13520 FILLER_184_365
*13521 FILLER_184_377
*13522 FILLER_184_389
*13523 FILLER_184_401
*13524 FILLER_184_41
*13525 FILLER_184_413
*13526 FILLER_184_419
*13527 FILLER_184_421
*13528 FILLER_184_433
*13529 FILLER_184_445
*13530 FILLER_184_457
*13531 FILLER_184_469
*13532 FILLER_184_475
*13533 FILLER_184_477
*13534 FILLER_184_489
*13535 FILLER_184_501
*13536 FILLER_184_513
*13537 FILLER_184_525
*13538 FILLER_184_53
*13539 FILLER_184_531
*13540 FILLER_184_533
*13541 FILLER_184_545
*13542 FILLER_184_557
*13543 FILLER_184_569
*13544 FILLER_184_581
*13545 FILLER_184_587
*13546 FILLER_184_589
*13547 FILLER_184_601
*13548 FILLER_184_613
*13549 FILLER_184_625
*13550 FILLER_184_637
*13551 FILLER_184_643
*13552 FILLER_184_645
*13553 FILLER_184_65
*13554 FILLER_184_657
*13555 FILLER_184_669
*13556 FILLER_184_681
*13557 FILLER_184_693
*13558 FILLER_184_699
*13559 FILLER_184_701
*13560 FILLER_184_713
*13561 FILLER_184_725
*13562 FILLER_184_737
*13563 FILLER_184_749
*13564 FILLER_184_755
*13565 FILLER_184_757
*13566 FILLER_184_769
*13567 FILLER_184_77
*13568 FILLER_184_781
*13569 FILLER_184_793
*13570 FILLER_184_805
*13571 FILLER_184_811
*13572 FILLER_184_813
*13573 FILLER_184_825
*13574 FILLER_184_83
*13575 FILLER_184_837
*13576 FILLER_184_849
*13577 FILLER_184_85
*13578 FILLER_184_861
*13579 FILLER_184_867
*13580 FILLER_184_869
*13581 FILLER_184_881
*13582 FILLER_184_893
*13583 FILLER_184_905
*13584 FILLER_184_917
*13585 FILLER_184_923
*13586 FILLER_184_925
*13587 FILLER_184_937
*13588 FILLER_184_949
*13589 FILLER_184_961
*13590 FILLER_184_97
*13591 FILLER_184_973
*13592 FILLER_184_979
*13593 FILLER_184_981
*13594 FILLER_184_993
*13595 FILLER_185_1001
*13596 FILLER_185_1007
*13597 FILLER_185_1009
*13598 FILLER_185_1021
*13599 FILLER_185_1033
*13600 FILLER_185_1045
*13601 FILLER_185_105
*13602 FILLER_185_1057
*13603 FILLER_185_1063
*13604 FILLER_185_1065
*13605 FILLER_185_1077
*13606 FILLER_185_1089
*13607 FILLER_185_1101
*13608 FILLER_185_111
*13609 FILLER_185_1113
*13610 FILLER_185_1119
*13611 FILLER_185_1121
*13612 FILLER_185_113
*13613 FILLER_185_1133
*13614 FILLER_185_1145
*13615 FILLER_185_1157
*13616 FILLER_185_1169
*13617 FILLER_185_1175
*13618 FILLER_185_1177
*13619 FILLER_185_1189
*13620 FILLER_185_1201
*13621 FILLER_185_1213
*13622 FILLER_185_1225
*13623 FILLER_185_1231
*13624 FILLER_185_1233
*13625 FILLER_185_1245
*13626 FILLER_185_125
*13627 FILLER_185_1257
*13628 FILLER_185_1269
*13629 FILLER_185_137
*13630 FILLER_185_149
*13631 FILLER_185_15
*13632 FILLER_185_161
*13633 FILLER_185_167
*13634 FILLER_185_169
*13635 FILLER_185_181
*13636 FILLER_185_193
*13637 FILLER_185_205
*13638 FILLER_185_217
*13639 FILLER_185_223
*13640 FILLER_185_225
*13641 FILLER_185_237
*13642 FILLER_185_249
*13643 FILLER_185_261
*13644 FILLER_185_27
*13645 FILLER_185_273
*13646 FILLER_185_279
*13647 FILLER_185_281
*13648 FILLER_185_293
*13649 FILLER_185_3
*13650 FILLER_185_305
*13651 FILLER_185_317
*13652 FILLER_185_329
*13653 FILLER_185_335
*13654 FILLER_185_337
*13655 FILLER_185_349
*13656 FILLER_185_361
*13657 FILLER_185_373
*13658 FILLER_185_385
*13659 FILLER_185_39
*13660 FILLER_185_391
*13661 FILLER_185_393
*13662 FILLER_185_405
*13663 FILLER_185_417
*13664 FILLER_185_429
*13665 FILLER_185_441
*13666 FILLER_185_447
*13667 FILLER_185_449
*13668 FILLER_185_461
*13669 FILLER_185_473
*13670 FILLER_185_485
*13671 FILLER_185_497
*13672 FILLER_185_503
*13673 FILLER_185_505
*13674 FILLER_185_51
*13675 FILLER_185_517
*13676 FILLER_185_529
*13677 FILLER_185_541
*13678 FILLER_185_55
*13679 FILLER_185_553
*13680 FILLER_185_559
*13681 FILLER_185_561
*13682 FILLER_185_57
*13683 FILLER_185_573
*13684 FILLER_185_585
*13685 FILLER_185_597
*13686 FILLER_185_609
*13687 FILLER_185_615
*13688 FILLER_185_617
*13689 FILLER_185_629
*13690 FILLER_185_641
*13691 FILLER_185_653
*13692 FILLER_185_665
*13693 FILLER_185_671
*13694 FILLER_185_673
*13695 FILLER_185_685
*13696 FILLER_185_69
*13697 FILLER_185_697
*13698 FILLER_185_709
*13699 FILLER_185_721
*13700 FILLER_185_727
*13701 FILLER_185_729
*13702 FILLER_185_741
*13703 FILLER_185_753
*13704 FILLER_185_765
*13705 FILLER_185_777
*13706 FILLER_185_783
*13707 FILLER_185_785
*13708 FILLER_185_797
*13709 FILLER_185_809
*13710 FILLER_185_81
*13711 FILLER_185_821
*13712 FILLER_185_833
*13713 FILLER_185_839
*13714 FILLER_185_841
*13715 FILLER_185_853
*13716 FILLER_185_865
*13717 FILLER_185_877
*13718 FILLER_185_889
*13719 FILLER_185_895
*13720 FILLER_185_897
*13721 FILLER_185_909
*13722 FILLER_185_921
*13723 FILLER_185_93
*13724 FILLER_185_933
*13725 FILLER_185_945
*13726 FILLER_185_951
*13727 FILLER_185_953
*13728 FILLER_185_965
*13729 FILLER_185_977
*13730 FILLER_185_989
*13731 FILLER_186_1005
*13732 FILLER_186_1017
*13733 FILLER_186_1029
*13734 FILLER_186_1035
*13735 FILLER_186_1037
*13736 FILLER_186_1049
*13737 FILLER_186_1061
*13738 FILLER_186_1073
*13739 FILLER_186_1085
*13740 FILLER_186_109
*13741 FILLER_186_1091
*13742 FILLER_186_1093
*13743 FILLER_186_1105
*13744 FILLER_186_1117
*13745 FILLER_186_1129
*13746 FILLER_186_1141
*13747 FILLER_186_1147
*13748 FILLER_186_1149
*13749 FILLER_186_1161
*13750 FILLER_186_1173
*13751 FILLER_186_1185
*13752 FILLER_186_1197
*13753 FILLER_186_1203
*13754 FILLER_186_1205
*13755 FILLER_186_121
*13756 FILLER_186_1217
*13757 FILLER_186_1229
*13758 FILLER_186_1241
*13759 FILLER_186_1253
*13760 FILLER_186_1259
*13761 FILLER_186_1261
*13762 FILLER_186_1273
*13763 FILLER_186_133
*13764 FILLER_186_139
*13765 FILLER_186_141
*13766 FILLER_186_15
*13767 FILLER_186_153
*13768 FILLER_186_165
*13769 FILLER_186_177
*13770 FILLER_186_189
*13771 FILLER_186_195
*13772 FILLER_186_197
*13773 FILLER_186_209
*13774 FILLER_186_221
*13775 FILLER_186_233
*13776 FILLER_186_245
*13777 FILLER_186_251
*13778 FILLER_186_253
*13779 FILLER_186_265
*13780 FILLER_186_27
*13781 FILLER_186_277
*13782 FILLER_186_289
*13783 FILLER_186_29
*13784 FILLER_186_3
*13785 FILLER_186_301
*13786 FILLER_186_307
*13787 FILLER_186_309
*13788 FILLER_186_321
*13789 FILLER_186_333
*13790 FILLER_186_345
*13791 FILLER_186_357
*13792 FILLER_186_363
*13793 FILLER_186_365
*13794 FILLER_186_377
*13795 FILLER_186_389
*13796 FILLER_186_401
*13797 FILLER_186_41
*13798 FILLER_186_413
*13799 FILLER_186_419
*13800 FILLER_186_421
*13801 FILLER_186_433
*13802 FILLER_186_445
*13803 FILLER_186_457
*13804 FILLER_186_469
*13805 FILLER_186_475
*13806 FILLER_186_477
*13807 FILLER_186_489
*13808 FILLER_186_501
*13809 FILLER_186_513
*13810 FILLER_186_525
*13811 FILLER_186_53
*13812 FILLER_186_531
*13813 FILLER_186_533
*13814 FILLER_186_545
*13815 FILLER_186_557
*13816 FILLER_186_569
*13817 FILLER_186_581
*13818 FILLER_186_587
*13819 FILLER_186_589
*13820 FILLER_186_601
*13821 FILLER_186_613
*13822 FILLER_186_625
*13823 FILLER_186_637
*13824 FILLER_186_643
*13825 FILLER_186_645
*13826 FILLER_186_65
*13827 FILLER_186_657
*13828 FILLER_186_669
*13829 FILLER_186_681
*13830 FILLER_186_693
*13831 FILLER_186_699
*13832 FILLER_186_701
*13833 FILLER_186_713
*13834 FILLER_186_725
*13835 FILLER_186_737
*13836 FILLER_186_749
*13837 FILLER_186_755
*13838 FILLER_186_757
*13839 FILLER_186_769
*13840 FILLER_186_77
*13841 FILLER_186_781
*13842 FILLER_186_793
*13843 FILLER_186_805
*13844 FILLER_186_811
*13845 FILLER_186_813
*13846 FILLER_186_825
*13847 FILLER_186_83
*13848 FILLER_186_837
*13849 FILLER_186_849
*13850 FILLER_186_85
*13851 FILLER_186_861
*13852 FILLER_186_867
*13853 FILLER_186_869
*13854 FILLER_186_881
*13855 FILLER_186_893
*13856 FILLER_186_905
*13857 FILLER_186_917
*13858 FILLER_186_923
*13859 FILLER_186_925
*13860 FILLER_186_937
*13861 FILLER_186_949
*13862 FILLER_186_961
*13863 FILLER_186_97
*13864 FILLER_186_973
*13865 FILLER_186_979
*13866 FILLER_186_981
*13867 FILLER_186_993
*13868 FILLER_187_1001
*13869 FILLER_187_1007
*13870 FILLER_187_1009
*13871 FILLER_187_1021
*13872 FILLER_187_1033
*13873 FILLER_187_1045
*13874 FILLER_187_105
*13875 FILLER_187_1057
*13876 FILLER_187_1063
*13877 FILLER_187_1065
*13878 FILLER_187_1077
*13879 FILLER_187_1089
*13880 FILLER_187_1101
*13881 FILLER_187_111
*13882 FILLER_187_1113
*13883 FILLER_187_1119
*13884 FILLER_187_1121
*13885 FILLER_187_113
*13886 FILLER_187_1133
*13887 FILLER_187_1145
*13888 FILLER_187_1157
*13889 FILLER_187_1169
*13890 FILLER_187_1175
*13891 FILLER_187_1177
*13892 FILLER_187_1189
*13893 FILLER_187_1201
*13894 FILLER_187_1213
*13895 FILLER_187_1225
*13896 FILLER_187_1231
*13897 FILLER_187_1233
*13898 FILLER_187_1245
*13899 FILLER_187_125
*13900 FILLER_187_1257
*13901 FILLER_187_1269
*13902 FILLER_187_137
*13903 FILLER_187_149
*13904 FILLER_187_15
*13905 FILLER_187_161
*13906 FILLER_187_167
*13907 FILLER_187_169
*13908 FILLER_187_181
*13909 FILLER_187_193
*13910 FILLER_187_205
*13911 FILLER_187_217
*13912 FILLER_187_223
*13913 FILLER_187_225
*13914 FILLER_187_237
*13915 FILLER_187_249
*13916 FILLER_187_261
*13917 FILLER_187_27
*13918 FILLER_187_273
*13919 FILLER_187_279
*13920 FILLER_187_281
*13921 FILLER_187_293
*13922 FILLER_187_3
*13923 FILLER_187_305
*13924 FILLER_187_317
*13925 FILLER_187_329
*13926 FILLER_187_335
*13927 FILLER_187_337
*13928 FILLER_187_349
*13929 FILLER_187_361
*13930 FILLER_187_373
*13931 FILLER_187_385
*13932 FILLER_187_39
*13933 FILLER_187_391
*13934 FILLER_187_393
*13935 FILLER_187_405
*13936 FILLER_187_417
*13937 FILLER_187_429
*13938 FILLER_187_441
*13939 FILLER_187_447
*13940 FILLER_187_449
*13941 FILLER_187_461
*13942 FILLER_187_473
*13943 FILLER_187_485
*13944 FILLER_187_497
*13945 FILLER_187_503
*13946 FILLER_187_505
*13947 FILLER_187_51
*13948 FILLER_187_517
*13949 FILLER_187_529
*13950 FILLER_187_541
*13951 FILLER_187_55
*13952 FILLER_187_553
*13953 FILLER_187_559
*13954 FILLER_187_561
*13955 FILLER_187_57
*13956 FILLER_187_573
*13957 FILLER_187_585
*13958 FILLER_187_597
*13959 FILLER_187_609
*13960 FILLER_187_615
*13961 FILLER_187_617
*13962 FILLER_187_629
*13963 FILLER_187_641
*13964 FILLER_187_653
*13965 FILLER_187_665
*13966 FILLER_187_671
*13967 FILLER_187_673
*13968 FILLER_187_685
*13969 FILLER_187_69
*13970 FILLER_187_697
*13971 FILLER_187_709
*13972 FILLER_187_721
*13973 FILLER_187_727
*13974 FILLER_187_729
*13975 FILLER_187_741
*13976 FILLER_187_753
*13977 FILLER_187_765
*13978 FILLER_187_777
*13979 FILLER_187_783
*13980 FILLER_187_785
*13981 FILLER_187_797
*13982 FILLER_187_809
*13983 FILLER_187_81
*13984 FILLER_187_821
*13985 FILLER_187_833
*13986 FILLER_187_839
*13987 FILLER_187_841
*13988 FILLER_187_853
*13989 FILLER_187_865
*13990 FILLER_187_877
*13991 FILLER_187_889
*13992 FILLER_187_895
*13993 FILLER_187_897
*13994 FILLER_187_909
*13995 FILLER_187_921
*13996 FILLER_187_93
*13997 FILLER_187_933
*13998 FILLER_187_945
*13999 FILLER_187_951
*14000 FILLER_187_953
*14001 FILLER_187_965
*14002 FILLER_187_977
*14003 FILLER_187_989
*14004 FILLER_188_1005
*14005 FILLER_188_1017
*14006 FILLER_188_1029
*14007 FILLER_188_1035
*14008 FILLER_188_1037
*14009 FILLER_188_1049
*14010 FILLER_188_1061
*14011 FILLER_188_1073
*14012 FILLER_188_1085
*14013 FILLER_188_109
*14014 FILLER_188_1091
*14015 FILLER_188_1093
*14016 FILLER_188_1105
*14017 FILLER_188_1117
*14018 FILLER_188_1129
*14019 FILLER_188_1141
*14020 FILLER_188_1147
*14021 FILLER_188_1149
*14022 FILLER_188_1161
*14023 FILLER_188_1173
*14024 FILLER_188_1185
*14025 FILLER_188_1197
*14026 FILLER_188_1203
*14027 FILLER_188_1205
*14028 FILLER_188_121
*14029 FILLER_188_1217
*14030 FILLER_188_1229
*14031 FILLER_188_1241
*14032 FILLER_188_1253
*14033 FILLER_188_1259
*14034 FILLER_188_1261
*14035 FILLER_188_1273
*14036 FILLER_188_133
*14037 FILLER_188_139
*14038 FILLER_188_141
*14039 FILLER_188_15
*14040 FILLER_188_153
*14041 FILLER_188_165
*14042 FILLER_188_177
*14043 FILLER_188_189
*14044 FILLER_188_195
*14045 FILLER_188_197
*14046 FILLER_188_209
*14047 FILLER_188_221
*14048 FILLER_188_233
*14049 FILLER_188_245
*14050 FILLER_188_251
*14051 FILLER_188_253
*14052 FILLER_188_265
*14053 FILLER_188_27
*14054 FILLER_188_277
*14055 FILLER_188_289
*14056 FILLER_188_29
*14057 FILLER_188_3
*14058 FILLER_188_301
*14059 FILLER_188_307
*14060 FILLER_188_309
*14061 FILLER_188_321
*14062 FILLER_188_333
*14063 FILLER_188_345
*14064 FILLER_188_357
*14065 FILLER_188_363
*14066 FILLER_188_365
*14067 FILLER_188_377
*14068 FILLER_188_389
*14069 FILLER_188_401
*14070 FILLER_188_41
*14071 FILLER_188_413
*14072 FILLER_188_419
*14073 FILLER_188_421
*14074 FILLER_188_433
*14075 FILLER_188_445
*14076 FILLER_188_457
*14077 FILLER_188_469
*14078 FILLER_188_475
*14079 FILLER_188_477
*14080 FILLER_188_489
*14081 FILLER_188_501
*14082 FILLER_188_513
*14083 FILLER_188_525
*14084 FILLER_188_53
*14085 FILLER_188_531
*14086 FILLER_188_533
*14087 FILLER_188_545
*14088 FILLER_188_557
*14089 FILLER_188_569
*14090 FILLER_188_581
*14091 FILLER_188_587
*14092 FILLER_188_589
*14093 FILLER_188_601
*14094 FILLER_188_613
*14095 FILLER_188_625
*14096 FILLER_188_637
*14097 FILLER_188_643
*14098 FILLER_188_645
*14099 FILLER_188_65
*14100 FILLER_188_657
*14101 FILLER_188_669
*14102 FILLER_188_681
*14103 FILLER_188_693
*14104 FILLER_188_699
*14105 FILLER_188_701
*14106 FILLER_188_713
*14107 FILLER_188_725
*14108 FILLER_188_737
*14109 FILLER_188_749
*14110 FILLER_188_755
*14111 FILLER_188_757
*14112 FILLER_188_769
*14113 FILLER_188_77
*14114 FILLER_188_781
*14115 FILLER_188_793
*14116 FILLER_188_805
*14117 FILLER_188_811
*14118 FILLER_188_813
*14119 FILLER_188_825
*14120 FILLER_188_83
*14121 FILLER_188_837
*14122 FILLER_188_849
*14123 FILLER_188_85
*14124 FILLER_188_861
*14125 FILLER_188_867
*14126 FILLER_188_869
*14127 FILLER_188_881
*14128 FILLER_188_893
*14129 FILLER_188_905
*14130 FILLER_188_917
*14131 FILLER_188_923
*14132 FILLER_188_925
*14133 FILLER_188_937
*14134 FILLER_188_949
*14135 FILLER_188_961
*14136 FILLER_188_97
*14137 FILLER_188_973
*14138 FILLER_188_979
*14139 FILLER_188_981
*14140 FILLER_188_993
*14141 FILLER_189_1001
*14142 FILLER_189_1007
*14143 FILLER_189_1009
*14144 FILLER_189_1021
*14145 FILLER_189_1033
*14146 FILLER_189_1045
*14147 FILLER_189_105
*14148 FILLER_189_1057
*14149 FILLER_189_1063
*14150 FILLER_189_1065
*14151 FILLER_189_1077
*14152 FILLER_189_1089
*14153 FILLER_189_1101
*14154 FILLER_189_111
*14155 FILLER_189_1113
*14156 FILLER_189_1119
*14157 FILLER_189_1121
*14158 FILLER_189_113
*14159 FILLER_189_1133
*14160 FILLER_189_1145
*14161 FILLER_189_1157
*14162 FILLER_189_1169
*14163 FILLER_189_1175
*14164 FILLER_189_1177
*14165 FILLER_189_1189
*14166 FILLER_189_1201
*14167 FILLER_189_1213
*14168 FILLER_189_1225
*14169 FILLER_189_1231
*14170 FILLER_189_1233
*14171 FILLER_189_1245
*14172 FILLER_189_125
*14173 FILLER_189_1257
*14174 FILLER_189_1269
*14175 FILLER_189_137
*14176 FILLER_189_149
*14177 FILLER_189_15
*14178 FILLER_189_161
*14179 FILLER_189_167
*14180 FILLER_189_169
*14181 FILLER_189_181
*14182 FILLER_189_193
*14183 FILLER_189_205
*14184 FILLER_189_217
*14185 FILLER_189_223
*14186 FILLER_189_225
*14187 FILLER_189_237
*14188 FILLER_189_249
*14189 FILLER_189_261
*14190 FILLER_189_27
*14191 FILLER_189_273
*14192 FILLER_189_279
*14193 FILLER_189_281
*14194 FILLER_189_293
*14195 FILLER_189_3
*14196 FILLER_189_305
*14197 FILLER_189_317
*14198 FILLER_189_329
*14199 FILLER_189_335
*14200 FILLER_189_337
*14201 FILLER_189_349
*14202 FILLER_189_361
*14203 FILLER_189_373
*14204 FILLER_189_385
*14205 FILLER_189_39
*14206 FILLER_189_391
*14207 FILLER_189_393
*14208 FILLER_189_405
*14209 FILLER_189_417
*14210 FILLER_189_429
*14211 FILLER_189_441
*14212 FILLER_189_447
*14213 FILLER_189_449
*14214 FILLER_189_461
*14215 FILLER_189_473
*14216 FILLER_189_485
*14217 FILLER_189_497
*14218 FILLER_189_503
*14219 FILLER_189_505
*14220 FILLER_189_51
*14221 FILLER_189_517
*14222 FILLER_189_529
*14223 FILLER_189_541
*14224 FILLER_189_55
*14225 FILLER_189_553
*14226 FILLER_189_559
*14227 FILLER_189_561
*14228 FILLER_189_57
*14229 FILLER_189_573
*14230 FILLER_189_585
*14231 FILLER_189_597
*14232 FILLER_189_609
*14233 FILLER_189_615
*14234 FILLER_189_617
*14235 FILLER_189_629
*14236 FILLER_189_641
*14237 FILLER_189_653
*14238 FILLER_189_665
*14239 FILLER_189_671
*14240 FILLER_189_673
*14241 FILLER_189_685
*14242 FILLER_189_69
*14243 FILLER_189_697
*14244 FILLER_189_709
*14245 FILLER_189_721
*14246 FILLER_189_727
*14247 FILLER_189_729
*14248 FILLER_189_741
*14249 FILLER_189_753
*14250 FILLER_189_765
*14251 FILLER_189_777
*14252 FILLER_189_783
*14253 FILLER_189_785
*14254 FILLER_189_797
*14255 FILLER_189_809
*14256 FILLER_189_81
*14257 FILLER_189_821
*14258 FILLER_189_833
*14259 FILLER_189_839
*14260 FILLER_189_841
*14261 FILLER_189_853
*14262 FILLER_189_865
*14263 FILLER_189_877
*14264 FILLER_189_889
*14265 FILLER_189_895
*14266 FILLER_189_897
*14267 FILLER_189_909
*14268 FILLER_189_921
*14269 FILLER_189_93
*14270 FILLER_189_933
*14271 FILLER_189_945
*14272 FILLER_189_951
*14273 FILLER_189_953
*14274 FILLER_189_965
*14275 FILLER_189_977
*14276 FILLER_189_989
*14277 FILLER_18_1005
*14278 FILLER_18_1017
*14279 FILLER_18_1029
*14280 FILLER_18_1035
*14281 FILLER_18_1037
*14282 FILLER_18_1049
*14283 FILLER_18_1061
*14284 FILLER_18_1073
*14285 FILLER_18_1085
*14286 FILLER_18_109
*14287 FILLER_18_1091
*14288 FILLER_18_1093
*14289 FILLER_18_1105
*14290 FILLER_18_1117
*14291 FILLER_18_1129
*14292 FILLER_18_1141
*14293 FILLER_18_1147
*14294 FILLER_18_1149
*14295 FILLER_18_1161
*14296 FILLER_18_1173
*14297 FILLER_18_1185
*14298 FILLER_18_1197
*14299 FILLER_18_1203
*14300 FILLER_18_1205
*14301 FILLER_18_121
*14302 FILLER_18_1217
*14303 FILLER_18_1229
*14304 FILLER_18_1241
*14305 FILLER_18_1253
*14306 FILLER_18_1259
*14307 FILLER_18_1261
*14308 FILLER_18_1273
*14309 FILLER_18_133
*14310 FILLER_18_139
*14311 FILLER_18_141
*14312 FILLER_18_15
*14313 FILLER_18_153
*14314 FILLER_18_165
*14315 FILLER_18_177
*14316 FILLER_18_189
*14317 FILLER_18_195
*14318 FILLER_18_197
*14319 FILLER_18_209
*14320 FILLER_18_221
*14321 FILLER_18_233
*14322 FILLER_18_245
*14323 FILLER_18_251
*14324 FILLER_18_253
*14325 FILLER_18_265
*14326 FILLER_18_27
*14327 FILLER_18_277
*14328 FILLER_18_289
*14329 FILLER_18_29
*14330 FILLER_18_3
*14331 FILLER_18_301
*14332 FILLER_18_307
*14333 FILLER_18_309
*14334 FILLER_18_321
*14335 FILLER_18_333
*14336 FILLER_18_345
*14337 FILLER_18_357
*14338 FILLER_18_363
*14339 FILLER_18_365
*14340 FILLER_18_377
*14341 FILLER_18_389
*14342 FILLER_18_401
*14343 FILLER_18_41
*14344 FILLER_18_413
*14345 FILLER_18_419
*14346 FILLER_18_421
*14347 FILLER_18_433
*14348 FILLER_18_445
*14349 FILLER_18_457
*14350 FILLER_18_469
*14351 FILLER_18_475
*14352 FILLER_18_477
*14353 FILLER_18_489
*14354 FILLER_18_501
*14355 FILLER_18_513
*14356 FILLER_18_525
*14357 FILLER_18_53
*14358 FILLER_18_531
*14359 FILLER_18_533
*14360 FILLER_18_545
*14361 FILLER_18_557
*14362 FILLER_18_569
*14363 FILLER_18_581
*14364 FILLER_18_587
*14365 FILLER_18_589
*14366 FILLER_18_601
*14367 FILLER_18_613
*14368 FILLER_18_625
*14369 FILLER_18_637
*14370 FILLER_18_643
*14371 FILLER_18_645
*14372 FILLER_18_65
*14373 FILLER_18_657
*14374 FILLER_18_669
*14375 FILLER_18_681
*14376 FILLER_18_693
*14377 FILLER_18_699
*14378 FILLER_18_701
*14379 FILLER_18_713
*14380 FILLER_18_725
*14381 FILLER_18_737
*14382 FILLER_18_749
*14383 FILLER_18_755
*14384 FILLER_18_757
*14385 FILLER_18_769
*14386 FILLER_18_77
*14387 FILLER_18_781
*14388 FILLER_18_793
*14389 FILLER_18_805
*14390 FILLER_18_811
*14391 FILLER_18_813
*14392 FILLER_18_825
*14393 FILLER_18_83
*14394 FILLER_18_837
*14395 FILLER_18_849
*14396 FILLER_18_85
*14397 FILLER_18_861
*14398 FILLER_18_867
*14399 FILLER_18_869
*14400 FILLER_18_881
*14401 FILLER_18_893
*14402 FILLER_18_905
*14403 FILLER_18_917
*14404 FILLER_18_923
*14405 FILLER_18_925
*14406 FILLER_18_937
*14407 FILLER_18_949
*14408 FILLER_18_961
*14409 FILLER_18_97
*14410 FILLER_18_973
*14411 FILLER_18_979
*14412 FILLER_18_981
*14413 FILLER_18_993
*14414 FILLER_190_1005
*14415 FILLER_190_1017
*14416 FILLER_190_1029
*14417 FILLER_190_1035
*14418 FILLER_190_1037
*14419 FILLER_190_1049
*14420 FILLER_190_1061
*14421 FILLER_190_1073
*14422 FILLER_190_1085
*14423 FILLER_190_109
*14424 FILLER_190_1091
*14425 FILLER_190_1093
*14426 FILLER_190_1105
*14427 FILLER_190_1117
*14428 FILLER_190_1129
*14429 FILLER_190_1141
*14430 FILLER_190_1147
*14431 FILLER_190_1149
*14432 FILLER_190_1161
*14433 FILLER_190_1173
*14434 FILLER_190_1185
*14435 FILLER_190_1197
*14436 FILLER_190_1203
*14437 FILLER_190_1205
*14438 FILLER_190_121
*14439 FILLER_190_1217
*14440 FILLER_190_1229
*14441 FILLER_190_1241
*14442 FILLER_190_1253
*14443 FILLER_190_1259
*14444 FILLER_190_1261
*14445 FILLER_190_1273
*14446 FILLER_190_133
*14447 FILLER_190_139
*14448 FILLER_190_141
*14449 FILLER_190_15
*14450 FILLER_190_153
*14451 FILLER_190_165
*14452 FILLER_190_177
*14453 FILLER_190_189
*14454 FILLER_190_195
*14455 FILLER_190_197
*14456 FILLER_190_209
*14457 FILLER_190_221
*14458 FILLER_190_233
*14459 FILLER_190_245
*14460 FILLER_190_251
*14461 FILLER_190_253
*14462 FILLER_190_265
*14463 FILLER_190_27
*14464 FILLER_190_277
*14465 FILLER_190_289
*14466 FILLER_190_29
*14467 FILLER_190_3
*14468 FILLER_190_301
*14469 FILLER_190_307
*14470 FILLER_190_309
*14471 FILLER_190_321
*14472 FILLER_190_333
*14473 FILLER_190_345
*14474 FILLER_190_357
*14475 FILLER_190_363
*14476 FILLER_190_365
*14477 FILLER_190_377
*14478 FILLER_190_389
*14479 FILLER_190_401
*14480 FILLER_190_41
*14481 FILLER_190_413
*14482 FILLER_190_419
*14483 FILLER_190_421
*14484 FILLER_190_433
*14485 FILLER_190_445
*14486 FILLER_190_457
*14487 FILLER_190_469
*14488 FILLER_190_475
*14489 FILLER_190_477
*14490 FILLER_190_489
*14491 FILLER_190_501
*14492 FILLER_190_513
*14493 FILLER_190_525
*14494 FILLER_190_53
*14495 FILLER_190_531
*14496 FILLER_190_533
*14497 FILLER_190_545
*14498 FILLER_190_557
*14499 FILLER_190_569
*14500 FILLER_190_581
*14501 FILLER_190_587
*14502 FILLER_190_589
*14503 FILLER_190_601
*14504 FILLER_190_613
*14505 FILLER_190_625
*14506 FILLER_190_637
*14507 FILLER_190_643
*14508 FILLER_190_645
*14509 FILLER_190_65
*14510 FILLER_190_657
*14511 FILLER_190_669
*14512 FILLER_190_681
*14513 FILLER_190_693
*14514 FILLER_190_699
*14515 FILLER_190_701
*14516 FILLER_190_713
*14517 FILLER_190_725
*14518 FILLER_190_737
*14519 FILLER_190_749
*14520 FILLER_190_755
*14521 FILLER_190_757
*14522 FILLER_190_769
*14523 FILLER_190_77
*14524 FILLER_190_781
*14525 FILLER_190_793
*14526 FILLER_190_805
*14527 FILLER_190_811
*14528 FILLER_190_813
*14529 FILLER_190_825
*14530 FILLER_190_83
*14531 FILLER_190_837
*14532 FILLER_190_849
*14533 FILLER_190_85
*14534 FILLER_190_861
*14535 FILLER_190_867
*14536 FILLER_190_869
*14537 FILLER_190_881
*14538 FILLER_190_893
*14539 FILLER_190_905
*14540 FILLER_190_917
*14541 FILLER_190_923
*14542 FILLER_190_925
*14543 FILLER_190_937
*14544 FILLER_190_949
*14545 FILLER_190_961
*14546 FILLER_190_97
*14547 FILLER_190_973
*14548 FILLER_190_979
*14549 FILLER_190_981
*14550 FILLER_190_993
*14551 FILLER_191_1001
*14552 FILLER_191_1007
*14553 FILLER_191_1009
*14554 FILLER_191_1021
*14555 FILLER_191_1033
*14556 FILLER_191_1045
*14557 FILLER_191_105
*14558 FILLER_191_1057
*14559 FILLER_191_1063
*14560 FILLER_191_1065
*14561 FILLER_191_1077
*14562 FILLER_191_1089
*14563 FILLER_191_1101
*14564 FILLER_191_111
*14565 FILLER_191_1113
*14566 FILLER_191_1119
*14567 FILLER_191_1121
*14568 FILLER_191_113
*14569 FILLER_191_1133
*14570 FILLER_191_1145
*14571 FILLER_191_1157
*14572 FILLER_191_1169
*14573 FILLER_191_1175
*14574 FILLER_191_1177
*14575 FILLER_191_1189
*14576 FILLER_191_1201
*14577 FILLER_191_1213
*14578 FILLER_191_1225
*14579 FILLER_191_1231
*14580 FILLER_191_1233
*14581 FILLER_191_1245
*14582 FILLER_191_125
*14583 FILLER_191_1257
*14584 FILLER_191_1269
*14585 FILLER_191_137
*14586 FILLER_191_149
*14587 FILLER_191_15
*14588 FILLER_191_161
*14589 FILLER_191_167
*14590 FILLER_191_169
*14591 FILLER_191_181
*14592 FILLER_191_193
*14593 FILLER_191_205
*14594 FILLER_191_217
*14595 FILLER_191_223
*14596 FILLER_191_225
*14597 FILLER_191_237
*14598 FILLER_191_249
*14599 FILLER_191_261
*14600 FILLER_191_27
*14601 FILLER_191_273
*14602 FILLER_191_279
*14603 FILLER_191_281
*14604 FILLER_191_293
*14605 FILLER_191_3
*14606 FILLER_191_305
*14607 FILLER_191_317
*14608 FILLER_191_329
*14609 FILLER_191_335
*14610 FILLER_191_337
*14611 FILLER_191_349
*14612 FILLER_191_361
*14613 FILLER_191_373
*14614 FILLER_191_385
*14615 FILLER_191_39
*14616 FILLER_191_391
*14617 FILLER_191_393
*14618 FILLER_191_405
*14619 FILLER_191_417
*14620 FILLER_191_429
*14621 FILLER_191_441
*14622 FILLER_191_447
*14623 FILLER_191_449
*14624 FILLER_191_461
*14625 FILLER_191_473
*14626 FILLER_191_485
*14627 FILLER_191_497
*14628 FILLER_191_503
*14629 FILLER_191_505
*14630 FILLER_191_51
*14631 FILLER_191_517
*14632 FILLER_191_529
*14633 FILLER_191_541
*14634 FILLER_191_55
*14635 FILLER_191_553
*14636 FILLER_191_559
*14637 FILLER_191_561
*14638 FILLER_191_57
*14639 FILLER_191_573
*14640 FILLER_191_585
*14641 FILLER_191_597
*14642 FILLER_191_609
*14643 FILLER_191_615
*14644 FILLER_191_617
*14645 FILLER_191_629
*14646 FILLER_191_641
*14647 FILLER_191_653
*14648 FILLER_191_665
*14649 FILLER_191_671
*14650 FILLER_191_673
*14651 FILLER_191_685
*14652 FILLER_191_69
*14653 FILLER_191_697
*14654 FILLER_191_709
*14655 FILLER_191_721
*14656 FILLER_191_727
*14657 FILLER_191_729
*14658 FILLER_191_741
*14659 FILLER_191_753
*14660 FILLER_191_765
*14661 FILLER_191_777
*14662 FILLER_191_783
*14663 FILLER_191_785
*14664 FILLER_191_797
*14665 FILLER_191_809
*14666 FILLER_191_81
*14667 FILLER_191_821
*14668 FILLER_191_833
*14669 FILLER_191_839
*14670 FILLER_191_841
*14671 FILLER_191_853
*14672 FILLER_191_865
*14673 FILLER_191_877
*14674 FILLER_191_889
*14675 FILLER_191_895
*14676 FILLER_191_897
*14677 FILLER_191_909
*14678 FILLER_191_921
*14679 FILLER_191_93
*14680 FILLER_191_933
*14681 FILLER_191_945
*14682 FILLER_191_951
*14683 FILLER_191_953
*14684 FILLER_191_965
*14685 FILLER_191_977
*14686 FILLER_191_989
*14687 FILLER_192_1005
*14688 FILLER_192_1017
*14689 FILLER_192_1029
*14690 FILLER_192_1035
*14691 FILLER_192_1037
*14692 FILLER_192_1049
*14693 FILLER_192_1061
*14694 FILLER_192_1073
*14695 FILLER_192_1085
*14696 FILLER_192_109
*14697 FILLER_192_1091
*14698 FILLER_192_1093
*14699 FILLER_192_1105
*14700 FILLER_192_1117
*14701 FILLER_192_1129
*14702 FILLER_192_1141
*14703 FILLER_192_1147
*14704 FILLER_192_1149
*14705 FILLER_192_1161
*14706 FILLER_192_1173
*14707 FILLER_192_1185
*14708 FILLER_192_1197
*14709 FILLER_192_1203
*14710 FILLER_192_1205
*14711 FILLER_192_121
*14712 FILLER_192_1217
*14713 FILLER_192_1229
*14714 FILLER_192_1241
*14715 FILLER_192_1253
*14716 FILLER_192_1259
*14717 FILLER_192_1261
*14718 FILLER_192_1273
*14719 FILLER_192_133
*14720 FILLER_192_139
*14721 FILLER_192_141
*14722 FILLER_192_15
*14723 FILLER_192_153
*14724 FILLER_192_165
*14725 FILLER_192_177
*14726 FILLER_192_189
*14727 FILLER_192_195
*14728 FILLER_192_197
*14729 FILLER_192_209
*14730 FILLER_192_221
*14731 FILLER_192_233
*14732 FILLER_192_245
*14733 FILLER_192_251
*14734 FILLER_192_253
*14735 FILLER_192_265
*14736 FILLER_192_27
*14737 FILLER_192_277
*14738 FILLER_192_289
*14739 FILLER_192_29
*14740 FILLER_192_3
*14741 FILLER_192_301
*14742 FILLER_192_307
*14743 FILLER_192_309
*14744 FILLER_192_321
*14745 FILLER_192_333
*14746 FILLER_192_345
*14747 FILLER_192_357
*14748 FILLER_192_363
*14749 FILLER_192_365
*14750 FILLER_192_377
*14751 FILLER_192_389
*14752 FILLER_192_401
*14753 FILLER_192_41
*14754 FILLER_192_413
*14755 FILLER_192_419
*14756 FILLER_192_421
*14757 FILLER_192_433
*14758 FILLER_192_445
*14759 FILLER_192_457
*14760 FILLER_192_469
*14761 FILLER_192_475
*14762 FILLER_192_477
*14763 FILLER_192_489
*14764 FILLER_192_501
*14765 FILLER_192_513
*14766 FILLER_192_525
*14767 FILLER_192_53
*14768 FILLER_192_531
*14769 FILLER_192_533
*14770 FILLER_192_545
*14771 FILLER_192_557
*14772 FILLER_192_569
*14773 FILLER_192_581
*14774 FILLER_192_587
*14775 FILLER_192_589
*14776 FILLER_192_601
*14777 FILLER_192_613
*14778 FILLER_192_625
*14779 FILLER_192_637
*14780 FILLER_192_643
*14781 FILLER_192_645
*14782 FILLER_192_65
*14783 FILLER_192_657
*14784 FILLER_192_669
*14785 FILLER_192_681
*14786 FILLER_192_693
*14787 FILLER_192_699
*14788 FILLER_192_701
*14789 FILLER_192_713
*14790 FILLER_192_725
*14791 FILLER_192_737
*14792 FILLER_192_749
*14793 FILLER_192_755
*14794 FILLER_192_757
*14795 FILLER_192_769
*14796 FILLER_192_77
*14797 FILLER_192_781
*14798 FILLER_192_793
*14799 FILLER_192_805
*14800 FILLER_192_811
*14801 FILLER_192_813
*14802 FILLER_192_825
*14803 FILLER_192_83
*14804 FILLER_192_837
*14805 FILLER_192_849
*14806 FILLER_192_85
*14807 FILLER_192_861
*14808 FILLER_192_867
*14809 FILLER_192_869
*14810 FILLER_192_881
*14811 FILLER_192_893
*14812 FILLER_192_905
*14813 FILLER_192_917
*14814 FILLER_192_923
*14815 FILLER_192_925
*14816 FILLER_192_937
*14817 FILLER_192_949
*14818 FILLER_192_961
*14819 FILLER_192_97
*14820 FILLER_192_973
*14821 FILLER_192_979
*14822 FILLER_192_981
*14823 FILLER_192_993
*14824 FILLER_193_1001
*14825 FILLER_193_1007
*14826 FILLER_193_1009
*14827 FILLER_193_1021
*14828 FILLER_193_1033
*14829 FILLER_193_1045
*14830 FILLER_193_105
*14831 FILLER_193_1057
*14832 FILLER_193_1063
*14833 FILLER_193_1065
*14834 FILLER_193_1077
*14835 FILLER_193_1089
*14836 FILLER_193_1101
*14837 FILLER_193_111
*14838 FILLER_193_1113
*14839 FILLER_193_1119
*14840 FILLER_193_1121
*14841 FILLER_193_113
*14842 FILLER_193_1133
*14843 FILLER_193_1145
*14844 FILLER_193_1157
*14845 FILLER_193_1169
*14846 FILLER_193_1175
*14847 FILLER_193_1177
*14848 FILLER_193_1189
*14849 FILLER_193_1201
*14850 FILLER_193_1213
*14851 FILLER_193_1225
*14852 FILLER_193_1231
*14853 FILLER_193_1233
*14854 FILLER_193_1245
*14855 FILLER_193_125
*14856 FILLER_193_1257
*14857 FILLER_193_1269
*14858 FILLER_193_137
*14859 FILLER_193_149
*14860 FILLER_193_15
*14861 FILLER_193_161
*14862 FILLER_193_167
*14863 FILLER_193_169
*14864 FILLER_193_181
*14865 FILLER_193_193
*14866 FILLER_193_205
*14867 FILLER_193_217
*14868 FILLER_193_223
*14869 FILLER_193_225
*14870 FILLER_193_237
*14871 FILLER_193_249
*14872 FILLER_193_261
*14873 FILLER_193_27
*14874 FILLER_193_273
*14875 FILLER_193_279
*14876 FILLER_193_281
*14877 FILLER_193_293
*14878 FILLER_193_3
*14879 FILLER_193_305
*14880 FILLER_193_317
*14881 FILLER_193_329
*14882 FILLER_193_335
*14883 FILLER_193_337
*14884 FILLER_193_349
*14885 FILLER_193_361
*14886 FILLER_193_373
*14887 FILLER_193_385
*14888 FILLER_193_39
*14889 FILLER_193_391
*14890 FILLER_193_393
*14891 FILLER_193_405
*14892 FILLER_193_417
*14893 FILLER_193_429
*14894 FILLER_193_441
*14895 FILLER_193_447
*14896 FILLER_193_449
*14897 FILLER_193_461
*14898 FILLER_193_473
*14899 FILLER_193_485
*14900 FILLER_193_497
*14901 FILLER_193_503
*14902 FILLER_193_505
*14903 FILLER_193_51
*14904 FILLER_193_517
*14905 FILLER_193_529
*14906 FILLER_193_541
*14907 FILLER_193_55
*14908 FILLER_193_553
*14909 FILLER_193_559
*14910 FILLER_193_561
*14911 FILLER_193_57
*14912 FILLER_193_573
*14913 FILLER_193_585
*14914 FILLER_193_597
*14915 FILLER_193_609
*14916 FILLER_193_615
*14917 FILLER_193_617
*14918 FILLER_193_629
*14919 FILLER_193_641
*14920 FILLER_193_653
*14921 FILLER_193_665
*14922 FILLER_193_671
*14923 FILLER_193_673
*14924 FILLER_193_685
*14925 FILLER_193_69
*14926 FILLER_193_697
*14927 FILLER_193_709
*14928 FILLER_193_721
*14929 FILLER_193_727
*14930 FILLER_193_729
*14931 FILLER_193_741
*14932 FILLER_193_753
*14933 FILLER_193_765
*14934 FILLER_193_777
*14935 FILLER_193_783
*14936 FILLER_193_785
*14937 FILLER_193_797
*14938 FILLER_193_809
*14939 FILLER_193_81
*14940 FILLER_193_821
*14941 FILLER_193_833
*14942 FILLER_193_839
*14943 FILLER_193_841
*14944 FILLER_193_853
*14945 FILLER_193_865
*14946 FILLER_193_877
*14947 FILLER_193_889
*14948 FILLER_193_895
*14949 FILLER_193_897
*14950 FILLER_193_909
*14951 FILLER_193_921
*14952 FILLER_193_93
*14953 FILLER_193_933
*14954 FILLER_193_945
*14955 FILLER_193_951
*14956 FILLER_193_953
*14957 FILLER_193_965
*14958 FILLER_193_977
*14959 FILLER_193_989
*14960 FILLER_194_1005
*14961 FILLER_194_1017
*14962 FILLER_194_1029
*14963 FILLER_194_1035
*14964 FILLER_194_1037
*14965 FILLER_194_1049
*14966 FILLER_194_1061
*14967 FILLER_194_1073
*14968 FILLER_194_1085
*14969 FILLER_194_109
*14970 FILLER_194_1091
*14971 FILLER_194_1093
*14972 FILLER_194_1105
*14973 FILLER_194_1117
*14974 FILLER_194_1129
*14975 FILLER_194_1141
*14976 FILLER_194_1147
*14977 FILLER_194_1149
*14978 FILLER_194_1161
*14979 FILLER_194_1173
*14980 FILLER_194_1185
*14981 FILLER_194_1197
*14982 FILLER_194_1203
*14983 FILLER_194_1205
*14984 FILLER_194_121
*14985 FILLER_194_1217
*14986 FILLER_194_1229
*14987 FILLER_194_1241
*14988 FILLER_194_1253
*14989 FILLER_194_1259
*14990 FILLER_194_1261
*14991 FILLER_194_1273
*14992 FILLER_194_133
*14993 FILLER_194_139
*14994 FILLER_194_141
*14995 FILLER_194_15
*14996 FILLER_194_153
*14997 FILLER_194_165
*14998 FILLER_194_177
*14999 FILLER_194_189
*15000 FILLER_194_195
*15001 FILLER_194_197
*15002 FILLER_194_209
*15003 FILLER_194_221
*15004 FILLER_194_233
*15005 FILLER_194_245
*15006 FILLER_194_251
*15007 FILLER_194_253
*15008 FILLER_194_265
*15009 FILLER_194_27
*15010 FILLER_194_277
*15011 FILLER_194_289
*15012 FILLER_194_29
*15013 FILLER_194_3
*15014 FILLER_194_301
*15015 FILLER_194_307
*15016 FILLER_194_309
*15017 FILLER_194_321
*15018 FILLER_194_333
*15019 FILLER_194_345
*15020 FILLER_194_357
*15021 FILLER_194_363
*15022 FILLER_194_365
*15023 FILLER_194_377
*15024 FILLER_194_389
*15025 FILLER_194_401
*15026 FILLER_194_41
*15027 FILLER_194_413
*15028 FILLER_194_419
*15029 FILLER_194_421
*15030 FILLER_194_433
*15031 FILLER_194_445
*15032 FILLER_194_457
*15033 FILLER_194_469
*15034 FILLER_194_475
*15035 FILLER_194_477
*15036 FILLER_194_489
*15037 FILLER_194_501
*15038 FILLER_194_513
*15039 FILLER_194_525
*15040 FILLER_194_53
*15041 FILLER_194_531
*15042 FILLER_194_533
*15043 FILLER_194_545
*15044 FILLER_194_557
*15045 FILLER_194_569
*15046 FILLER_194_581
*15047 FILLER_194_587
*15048 FILLER_194_589
*15049 FILLER_194_601
*15050 FILLER_194_613
*15051 FILLER_194_625
*15052 FILLER_194_637
*15053 FILLER_194_643
*15054 FILLER_194_645
*15055 FILLER_194_65
*15056 FILLER_194_657
*15057 FILLER_194_669
*15058 FILLER_194_681
*15059 FILLER_194_693
*15060 FILLER_194_699
*15061 FILLER_194_701
*15062 FILLER_194_713
*15063 FILLER_194_725
*15064 FILLER_194_737
*15065 FILLER_194_749
*15066 FILLER_194_755
*15067 FILLER_194_757
*15068 FILLER_194_769
*15069 FILLER_194_77
*15070 FILLER_194_781
*15071 FILLER_194_793
*15072 FILLER_194_805
*15073 FILLER_194_811
*15074 FILLER_194_813
*15075 FILLER_194_825
*15076 FILLER_194_83
*15077 FILLER_194_837
*15078 FILLER_194_849
*15079 FILLER_194_85
*15080 FILLER_194_861
*15081 FILLER_194_867
*15082 FILLER_194_869
*15083 FILLER_194_881
*15084 FILLER_194_893
*15085 FILLER_194_905
*15086 FILLER_194_917
*15087 FILLER_194_923
*15088 FILLER_194_925
*15089 FILLER_194_937
*15090 FILLER_194_949
*15091 FILLER_194_961
*15092 FILLER_194_97
*15093 FILLER_194_973
*15094 FILLER_194_979
*15095 FILLER_194_981
*15096 FILLER_194_993
*15097 FILLER_195_1001
*15098 FILLER_195_1007
*15099 FILLER_195_1009
*15100 FILLER_195_1021
*15101 FILLER_195_1033
*15102 FILLER_195_1045
*15103 FILLER_195_105
*15104 FILLER_195_1057
*15105 FILLER_195_1063
*15106 FILLER_195_1065
*15107 FILLER_195_1077
*15108 FILLER_195_1089
*15109 FILLER_195_1101
*15110 FILLER_195_111
*15111 FILLER_195_1113
*15112 FILLER_195_1119
*15113 FILLER_195_1121
*15114 FILLER_195_113
*15115 FILLER_195_1133
*15116 FILLER_195_1145
*15117 FILLER_195_1157
*15118 FILLER_195_1169
*15119 FILLER_195_1175
*15120 FILLER_195_1177
*15121 FILLER_195_1189
*15122 FILLER_195_1201
*15123 FILLER_195_1213
*15124 FILLER_195_1225
*15125 FILLER_195_1231
*15126 FILLER_195_1233
*15127 FILLER_195_1245
*15128 FILLER_195_125
*15129 FILLER_195_1257
*15130 FILLER_195_1269
*15131 FILLER_195_137
*15132 FILLER_195_149
*15133 FILLER_195_15
*15134 FILLER_195_161
*15135 FILLER_195_167
*15136 FILLER_195_169
*15137 FILLER_195_181
*15138 FILLER_195_193
*15139 FILLER_195_205
*15140 FILLER_195_217
*15141 FILLER_195_223
*15142 FILLER_195_225
*15143 FILLER_195_237
*15144 FILLER_195_249
*15145 FILLER_195_261
*15146 FILLER_195_27
*15147 FILLER_195_273
*15148 FILLER_195_279
*15149 FILLER_195_281
*15150 FILLER_195_293
*15151 FILLER_195_3
*15152 FILLER_195_305
*15153 FILLER_195_317
*15154 FILLER_195_329
*15155 FILLER_195_335
*15156 FILLER_195_337
*15157 FILLER_195_349
*15158 FILLER_195_361
*15159 FILLER_195_373
*15160 FILLER_195_385
*15161 FILLER_195_39
*15162 FILLER_195_391
*15163 FILLER_195_393
*15164 FILLER_195_405
*15165 FILLER_195_417
*15166 FILLER_195_429
*15167 FILLER_195_441
*15168 FILLER_195_447
*15169 FILLER_195_449
*15170 FILLER_195_461
*15171 FILLER_195_473
*15172 FILLER_195_485
*15173 FILLER_195_497
*15174 FILLER_195_503
*15175 FILLER_195_505
*15176 FILLER_195_51
*15177 FILLER_195_517
*15178 FILLER_195_529
*15179 FILLER_195_541
*15180 FILLER_195_55
*15181 FILLER_195_553
*15182 FILLER_195_559
*15183 FILLER_195_561
*15184 FILLER_195_57
*15185 FILLER_195_573
*15186 FILLER_195_585
*15187 FILLER_195_597
*15188 FILLER_195_609
*15189 FILLER_195_615
*15190 FILLER_195_617
*15191 FILLER_195_629
*15192 FILLER_195_641
*15193 FILLER_195_653
*15194 FILLER_195_665
*15195 FILLER_195_671
*15196 FILLER_195_673
*15197 FILLER_195_685
*15198 FILLER_195_69
*15199 FILLER_195_697
*15200 FILLER_195_709
*15201 FILLER_195_721
*15202 FILLER_195_727
*15203 FILLER_195_729
*15204 FILLER_195_741
*15205 FILLER_195_753
*15206 FILLER_195_765
*15207 FILLER_195_777
*15208 FILLER_195_783
*15209 FILLER_195_785
*15210 FILLER_195_797
*15211 FILLER_195_809
*15212 FILLER_195_81
*15213 FILLER_195_821
*15214 FILLER_195_833
*15215 FILLER_195_839
*15216 FILLER_195_841
*15217 FILLER_195_853
*15218 FILLER_195_865
*15219 FILLER_195_877
*15220 FILLER_195_889
*15221 FILLER_195_895
*15222 FILLER_195_897
*15223 FILLER_195_909
*15224 FILLER_195_921
*15225 FILLER_195_93
*15226 FILLER_195_933
*15227 FILLER_195_945
*15228 FILLER_195_951
*15229 FILLER_195_953
*15230 FILLER_195_965
*15231 FILLER_195_977
*15232 FILLER_195_989
*15233 FILLER_196_1005
*15234 FILLER_196_1017
*15235 FILLER_196_1029
*15236 FILLER_196_1035
*15237 FILLER_196_1037
*15238 FILLER_196_1049
*15239 FILLER_196_1061
*15240 FILLER_196_1073
*15241 FILLER_196_1085
*15242 FILLER_196_109
*15243 FILLER_196_1091
*15244 FILLER_196_1093
*15245 FILLER_196_1105
*15246 FILLER_196_1117
*15247 FILLER_196_1129
*15248 FILLER_196_1141
*15249 FILLER_196_1147
*15250 FILLER_196_1149
*15251 FILLER_196_1161
*15252 FILLER_196_1173
*15253 FILLER_196_1185
*15254 FILLER_196_1197
*15255 FILLER_196_1203
*15256 FILLER_196_1205
*15257 FILLER_196_121
*15258 FILLER_196_1217
*15259 FILLER_196_1229
*15260 FILLER_196_1241
*15261 FILLER_196_1253
*15262 FILLER_196_1259
*15263 FILLER_196_1261
*15264 FILLER_196_1273
*15265 FILLER_196_133
*15266 FILLER_196_139
*15267 FILLER_196_141
*15268 FILLER_196_15
*15269 FILLER_196_153
*15270 FILLER_196_165
*15271 FILLER_196_177
*15272 FILLER_196_189
*15273 FILLER_196_195
*15274 FILLER_196_197
*15275 FILLER_196_209
*15276 FILLER_196_221
*15277 FILLER_196_233
*15278 FILLER_196_245
*15279 FILLER_196_251
*15280 FILLER_196_253
*15281 FILLER_196_265
*15282 FILLER_196_27
*15283 FILLER_196_277
*15284 FILLER_196_289
*15285 FILLER_196_29
*15286 FILLER_196_3
*15287 FILLER_196_301
*15288 FILLER_196_307
*15289 FILLER_196_309
*15290 FILLER_196_321
*15291 FILLER_196_333
*15292 FILLER_196_345
*15293 FILLER_196_357
*15294 FILLER_196_363
*15295 FILLER_196_365
*15296 FILLER_196_377
*15297 FILLER_196_389
*15298 FILLER_196_401
*15299 FILLER_196_41
*15300 FILLER_196_413
*15301 FILLER_196_419
*15302 FILLER_196_421
*15303 FILLER_196_433
*15304 FILLER_196_445
*15305 FILLER_196_457
*15306 FILLER_196_469
*15307 FILLER_196_475
*15308 FILLER_196_477
*15309 FILLER_196_489
*15310 FILLER_196_501
*15311 FILLER_196_513
*15312 FILLER_196_525
*15313 FILLER_196_53
*15314 FILLER_196_531
*15315 FILLER_196_533
*15316 FILLER_196_545
*15317 FILLER_196_557
*15318 FILLER_196_569
*15319 FILLER_196_581
*15320 FILLER_196_587
*15321 FILLER_196_589
*15322 FILLER_196_601
*15323 FILLER_196_613
*15324 FILLER_196_625
*15325 FILLER_196_637
*15326 FILLER_196_643
*15327 FILLER_196_645
*15328 FILLER_196_65
*15329 FILLER_196_657
*15330 FILLER_196_669
*15331 FILLER_196_681
*15332 FILLER_196_693
*15333 FILLER_196_699
*15334 FILLER_196_701
*15335 FILLER_196_713
*15336 FILLER_196_725
*15337 FILLER_196_737
*15338 FILLER_196_749
*15339 FILLER_196_755
*15340 FILLER_196_757
*15341 FILLER_196_769
*15342 FILLER_196_77
*15343 FILLER_196_781
*15344 FILLER_196_793
*15345 FILLER_196_805
*15346 FILLER_196_811
*15347 FILLER_196_813
*15348 FILLER_196_825
*15349 FILLER_196_83
*15350 FILLER_196_837
*15351 FILLER_196_849
*15352 FILLER_196_85
*15353 FILLER_196_861
*15354 FILLER_196_867
*15355 FILLER_196_869
*15356 FILLER_196_881
*15357 FILLER_196_893
*15358 FILLER_196_905
*15359 FILLER_196_917
*15360 FILLER_196_923
*15361 FILLER_196_925
*15362 FILLER_196_937
*15363 FILLER_196_949
*15364 FILLER_196_961
*15365 FILLER_196_97
*15366 FILLER_196_973
*15367 FILLER_196_979
*15368 FILLER_196_981
*15369 FILLER_196_993
*15370 FILLER_197_1001
*15371 FILLER_197_1007
*15372 FILLER_197_1009
*15373 FILLER_197_1021
*15374 FILLER_197_1033
*15375 FILLER_197_1045
*15376 FILLER_197_105
*15377 FILLER_197_1057
*15378 FILLER_197_1063
*15379 FILLER_197_1065
*15380 FILLER_197_1077
*15381 FILLER_197_1089
*15382 FILLER_197_1101
*15383 FILLER_197_111
*15384 FILLER_197_1113
*15385 FILLER_197_1119
*15386 FILLER_197_1121
*15387 FILLER_197_113
*15388 FILLER_197_1133
*15389 FILLER_197_1145
*15390 FILLER_197_1157
*15391 FILLER_197_1169
*15392 FILLER_197_1175
*15393 FILLER_197_1177
*15394 FILLER_197_1189
*15395 FILLER_197_1201
*15396 FILLER_197_1213
*15397 FILLER_197_1225
*15398 FILLER_197_1231
*15399 FILLER_197_1233
*15400 FILLER_197_1245
*15401 FILLER_197_125
*15402 FILLER_197_1257
*15403 FILLER_197_1269
*15404 FILLER_197_137
*15405 FILLER_197_149
*15406 FILLER_197_15
*15407 FILLER_197_161
*15408 FILLER_197_167
*15409 FILLER_197_169
*15410 FILLER_197_181
*15411 FILLER_197_193
*15412 FILLER_197_205
*15413 FILLER_197_217
*15414 FILLER_197_223
*15415 FILLER_197_225
*15416 FILLER_197_237
*15417 FILLER_197_249
*15418 FILLER_197_261
*15419 FILLER_197_27
*15420 FILLER_197_273
*15421 FILLER_197_279
*15422 FILLER_197_281
*15423 FILLER_197_293
*15424 FILLER_197_3
*15425 FILLER_197_305
*15426 FILLER_197_317
*15427 FILLER_197_329
*15428 FILLER_197_335
*15429 FILLER_197_337
*15430 FILLER_197_349
*15431 FILLER_197_361
*15432 FILLER_197_373
*15433 FILLER_197_385
*15434 FILLER_197_39
*15435 FILLER_197_391
*15436 FILLER_197_393
*15437 FILLER_197_405
*15438 FILLER_197_417
*15439 FILLER_197_429
*15440 FILLER_197_441
*15441 FILLER_197_447
*15442 FILLER_197_449
*15443 FILLER_197_461
*15444 FILLER_197_473
*15445 FILLER_197_485
*15446 FILLER_197_497
*15447 FILLER_197_503
*15448 FILLER_197_505
*15449 FILLER_197_51
*15450 FILLER_197_517
*15451 FILLER_197_529
*15452 FILLER_197_541
*15453 FILLER_197_55
*15454 FILLER_197_553
*15455 FILLER_197_559
*15456 FILLER_197_561
*15457 FILLER_197_57
*15458 FILLER_197_573
*15459 FILLER_197_585
*15460 FILLER_197_597
*15461 FILLER_197_609
*15462 FILLER_197_615
*15463 FILLER_197_617
*15464 FILLER_197_629
*15465 FILLER_197_641
*15466 FILLER_197_653
*15467 FILLER_197_665
*15468 FILLER_197_671
*15469 FILLER_197_673
*15470 FILLER_197_685
*15471 FILLER_197_69
*15472 FILLER_197_697
*15473 FILLER_197_709
*15474 FILLER_197_721
*15475 FILLER_197_727
*15476 FILLER_197_729
*15477 FILLER_197_741
*15478 FILLER_197_753
*15479 FILLER_197_765
*15480 FILLER_197_777
*15481 FILLER_197_783
*15482 FILLER_197_785
*15483 FILLER_197_797
*15484 FILLER_197_809
*15485 FILLER_197_81
*15486 FILLER_197_821
*15487 FILLER_197_833
*15488 FILLER_197_839
*15489 FILLER_197_841
*15490 FILLER_197_853
*15491 FILLER_197_865
*15492 FILLER_197_877
*15493 FILLER_197_889
*15494 FILLER_197_895
*15495 FILLER_197_897
*15496 FILLER_197_909
*15497 FILLER_197_921
*15498 FILLER_197_93
*15499 FILLER_197_933
*15500 FILLER_197_945
*15501 FILLER_197_951
*15502 FILLER_197_953
*15503 FILLER_197_965
*15504 FILLER_197_977
*15505 FILLER_197_989
*15506 FILLER_198_1005
*15507 FILLER_198_1017
*15508 FILLER_198_1029
*15509 FILLER_198_1035
*15510 FILLER_198_1037
*15511 FILLER_198_1049
*15512 FILLER_198_1061
*15513 FILLER_198_1073
*15514 FILLER_198_1085
*15515 FILLER_198_109
*15516 FILLER_198_1091
*15517 FILLER_198_1093
*15518 FILLER_198_1105
*15519 FILLER_198_1117
*15520 FILLER_198_1129
*15521 FILLER_198_1141
*15522 FILLER_198_1147
*15523 FILLER_198_1149
*15524 FILLER_198_1161
*15525 FILLER_198_1173
*15526 FILLER_198_1185
*15527 FILLER_198_1197
*15528 FILLER_198_1203
*15529 FILLER_198_1205
*15530 FILLER_198_121
*15531 FILLER_198_1217
*15532 FILLER_198_1229
*15533 FILLER_198_1241
*15534 FILLER_198_1253
*15535 FILLER_198_1259
*15536 FILLER_198_1261
*15537 FILLER_198_1273
*15538 FILLER_198_133
*15539 FILLER_198_139
*15540 FILLER_198_141
*15541 FILLER_198_15
*15542 FILLER_198_153
*15543 FILLER_198_165
*15544 FILLER_198_177
*15545 FILLER_198_189
*15546 FILLER_198_195
*15547 FILLER_198_197
*15548 FILLER_198_209
*15549 FILLER_198_221
*15550 FILLER_198_233
*15551 FILLER_198_245
*15552 FILLER_198_251
*15553 FILLER_198_253
*15554 FILLER_198_265
*15555 FILLER_198_27
*15556 FILLER_198_277
*15557 FILLER_198_289
*15558 FILLER_198_29
*15559 FILLER_198_3
*15560 FILLER_198_301
*15561 FILLER_198_307
*15562 FILLER_198_309
*15563 FILLER_198_321
*15564 FILLER_198_333
*15565 FILLER_198_345
*15566 FILLER_198_357
*15567 FILLER_198_363
*15568 FILLER_198_365
*15569 FILLER_198_377
*15570 FILLER_198_389
*15571 FILLER_198_401
*15572 FILLER_198_41
*15573 FILLER_198_413
*15574 FILLER_198_419
*15575 FILLER_198_421
*15576 FILLER_198_433
*15577 FILLER_198_445
*15578 FILLER_198_457
*15579 FILLER_198_469
*15580 FILLER_198_475
*15581 FILLER_198_477
*15582 FILLER_198_489
*15583 FILLER_198_501
*15584 FILLER_198_513
*15585 FILLER_198_525
*15586 FILLER_198_53
*15587 FILLER_198_531
*15588 FILLER_198_533
*15589 FILLER_198_545
*15590 FILLER_198_557
*15591 FILLER_198_569
*15592 FILLER_198_581
*15593 FILLER_198_587
*15594 FILLER_198_589
*15595 FILLER_198_601
*15596 FILLER_198_613
*15597 FILLER_198_625
*15598 FILLER_198_637
*15599 FILLER_198_643
*15600 FILLER_198_645
*15601 FILLER_198_65
*15602 FILLER_198_657
*15603 FILLER_198_669
*15604 FILLER_198_681
*15605 FILLER_198_693
*15606 FILLER_198_699
*15607 FILLER_198_701
*15608 FILLER_198_713
*15609 FILLER_198_725
*15610 FILLER_198_737
*15611 FILLER_198_749
*15612 FILLER_198_755
*15613 FILLER_198_757
*15614 FILLER_198_769
*15615 FILLER_198_77
*15616 FILLER_198_781
*15617 FILLER_198_793
*15618 FILLER_198_805
*15619 FILLER_198_811
*15620 FILLER_198_813
*15621 FILLER_198_825
*15622 FILLER_198_83
*15623 FILLER_198_837
*15624 FILLER_198_849
*15625 FILLER_198_85
*15626 FILLER_198_861
*15627 FILLER_198_867
*15628 FILLER_198_869
*15629 FILLER_198_881
*15630 FILLER_198_893
*15631 FILLER_198_905
*15632 FILLER_198_917
*15633 FILLER_198_923
*15634 FILLER_198_925
*15635 FILLER_198_937
*15636 FILLER_198_949
*15637 FILLER_198_961
*15638 FILLER_198_97
*15639 FILLER_198_973
*15640 FILLER_198_979
*15641 FILLER_198_981
*15642 FILLER_198_993
*15643 FILLER_199_1001
*15644 FILLER_199_1007
*15645 FILLER_199_1009
*15646 FILLER_199_1021
*15647 FILLER_199_1033
*15648 FILLER_199_1045
*15649 FILLER_199_105
*15650 FILLER_199_1057
*15651 FILLER_199_1063
*15652 FILLER_199_1065
*15653 FILLER_199_1077
*15654 FILLER_199_1089
*15655 FILLER_199_1101
*15656 FILLER_199_111
*15657 FILLER_199_1113
*15658 FILLER_199_1119
*15659 FILLER_199_1121
*15660 FILLER_199_113
*15661 FILLER_199_1133
*15662 FILLER_199_1145
*15663 FILLER_199_1157
*15664 FILLER_199_1169
*15665 FILLER_199_1175
*15666 FILLER_199_1177
*15667 FILLER_199_1189
*15668 FILLER_199_1201
*15669 FILLER_199_1213
*15670 FILLER_199_1225
*15671 FILLER_199_1231
*15672 FILLER_199_1233
*15673 FILLER_199_1245
*15674 FILLER_199_125
*15675 FILLER_199_1257
*15676 FILLER_199_1269
*15677 FILLER_199_137
*15678 FILLER_199_149
*15679 FILLER_199_15
*15680 FILLER_199_161
*15681 FILLER_199_167
*15682 FILLER_199_169
*15683 FILLER_199_181
*15684 FILLER_199_193
*15685 FILLER_199_205
*15686 FILLER_199_217
*15687 FILLER_199_223
*15688 FILLER_199_225
*15689 FILLER_199_237
*15690 FILLER_199_249
*15691 FILLER_199_261
*15692 FILLER_199_27
*15693 FILLER_199_273
*15694 FILLER_199_279
*15695 FILLER_199_281
*15696 FILLER_199_293
*15697 FILLER_199_3
*15698 FILLER_199_305
*15699 FILLER_199_317
*15700 FILLER_199_329
*15701 FILLER_199_335
*15702 FILLER_199_337
*15703 FILLER_199_349
*15704 FILLER_199_361
*15705 FILLER_199_373
*15706 FILLER_199_385
*15707 FILLER_199_39
*15708 FILLER_199_391
*15709 FILLER_199_393
*15710 FILLER_199_405
*15711 FILLER_199_417
*15712 FILLER_199_429
*15713 FILLER_199_441
*15714 FILLER_199_447
*15715 FILLER_199_449
*15716 FILLER_199_461
*15717 FILLER_199_473
*15718 FILLER_199_485
*15719 FILLER_199_497
*15720 FILLER_199_503
*15721 FILLER_199_505
*15722 FILLER_199_51
*15723 FILLER_199_517
*15724 FILLER_199_529
*15725 FILLER_199_541
*15726 FILLER_199_55
*15727 FILLER_199_553
*15728 FILLER_199_559
*15729 FILLER_199_561
*15730 FILLER_199_57
*15731 FILLER_199_573
*15732 FILLER_199_585
*15733 FILLER_199_597
*15734 FILLER_199_609
*15735 FILLER_199_615
*15736 FILLER_199_617
*15737 FILLER_199_629
*15738 FILLER_199_641
*15739 FILLER_199_653
*15740 FILLER_199_665
*15741 FILLER_199_671
*15742 FILLER_199_673
*15743 FILLER_199_685
*15744 FILLER_199_69
*15745 FILLER_199_697
*15746 FILLER_199_709
*15747 FILLER_199_721
*15748 FILLER_199_727
*15749 FILLER_199_729
*15750 FILLER_199_741
*15751 FILLER_199_753
*15752 FILLER_199_765
*15753 FILLER_199_777
*15754 FILLER_199_783
*15755 FILLER_199_785
*15756 FILLER_199_797
*15757 FILLER_199_809
*15758 FILLER_199_81
*15759 FILLER_199_821
*15760 FILLER_199_833
*15761 FILLER_199_839
*15762 FILLER_199_841
*15763 FILLER_199_853
*15764 FILLER_199_865
*15765 FILLER_199_877
*15766 FILLER_199_889
*15767 FILLER_199_895
*15768 FILLER_199_897
*15769 FILLER_199_909
*15770 FILLER_199_921
*15771 FILLER_199_93
*15772 FILLER_199_933
*15773 FILLER_199_945
*15774 FILLER_199_951
*15775 FILLER_199_953
*15776 FILLER_199_965
*15777 FILLER_199_977
*15778 FILLER_199_989
*15779 FILLER_19_1001
*15780 FILLER_19_1007
*15781 FILLER_19_1009
*15782 FILLER_19_1021
*15783 FILLER_19_1033
*15784 FILLER_19_1045
*15785 FILLER_19_105
*15786 FILLER_19_1057
*15787 FILLER_19_1063
*15788 FILLER_19_1065
*15789 FILLER_19_1077
*15790 FILLER_19_1089
*15791 FILLER_19_1101
*15792 FILLER_19_111
*15793 FILLER_19_1113
*15794 FILLER_19_1119
*15795 FILLER_19_1121
*15796 FILLER_19_113
*15797 FILLER_19_1133
*15798 FILLER_19_1145
*15799 FILLER_19_1157
*15800 FILLER_19_1169
*15801 FILLER_19_1175
*15802 FILLER_19_1177
*15803 FILLER_19_1189
*15804 FILLER_19_1201
*15805 FILLER_19_1213
*15806 FILLER_19_1225
*15807 FILLER_19_1231
*15808 FILLER_19_1233
*15809 FILLER_19_1245
*15810 FILLER_19_125
*15811 FILLER_19_1257
*15812 FILLER_19_1269
*15813 FILLER_19_137
*15814 FILLER_19_149
*15815 FILLER_19_15
*15816 FILLER_19_161
*15817 FILLER_19_167
*15818 FILLER_19_169
*15819 FILLER_19_181
*15820 FILLER_19_193
*15821 FILLER_19_205
*15822 FILLER_19_217
*15823 FILLER_19_223
*15824 FILLER_19_225
*15825 FILLER_19_237
*15826 FILLER_19_249
*15827 FILLER_19_261
*15828 FILLER_19_27
*15829 FILLER_19_273
*15830 FILLER_19_279
*15831 FILLER_19_281
*15832 FILLER_19_293
*15833 FILLER_19_3
*15834 FILLER_19_305
*15835 FILLER_19_317
*15836 FILLER_19_329
*15837 FILLER_19_335
*15838 FILLER_19_337
*15839 FILLER_19_349
*15840 FILLER_19_361
*15841 FILLER_19_373
*15842 FILLER_19_385
*15843 FILLER_19_39
*15844 FILLER_19_391
*15845 FILLER_19_393
*15846 FILLER_19_405
*15847 FILLER_19_417
*15848 FILLER_19_429
*15849 FILLER_19_441
*15850 FILLER_19_447
*15851 FILLER_19_449
*15852 FILLER_19_461
*15853 FILLER_19_473
*15854 FILLER_19_485
*15855 FILLER_19_497
*15856 FILLER_19_503
*15857 FILLER_19_505
*15858 FILLER_19_51
*15859 FILLER_19_517
*15860 FILLER_19_529
*15861 FILLER_19_541
*15862 FILLER_19_55
*15863 FILLER_19_553
*15864 FILLER_19_559
*15865 FILLER_19_561
*15866 FILLER_19_57
*15867 FILLER_19_573
*15868 FILLER_19_585
*15869 FILLER_19_597
*15870 FILLER_19_609
*15871 FILLER_19_615
*15872 FILLER_19_617
*15873 FILLER_19_629
*15874 FILLER_19_641
*15875 FILLER_19_653
*15876 FILLER_19_665
*15877 FILLER_19_671
*15878 FILLER_19_673
*15879 FILLER_19_685
*15880 FILLER_19_69
*15881 FILLER_19_697
*15882 FILLER_19_709
*15883 FILLER_19_721
*15884 FILLER_19_727
*15885 FILLER_19_729
*15886 FILLER_19_741
*15887 FILLER_19_753
*15888 FILLER_19_765
*15889 FILLER_19_777
*15890 FILLER_19_783
*15891 FILLER_19_785
*15892 FILLER_19_797
*15893 FILLER_19_809
*15894 FILLER_19_81
*15895 FILLER_19_821
*15896 FILLER_19_833
*15897 FILLER_19_839
*15898 FILLER_19_841
*15899 FILLER_19_853
*15900 FILLER_19_865
*15901 FILLER_19_877
*15902 FILLER_19_889
*15903 FILLER_19_895
*15904 FILLER_19_897
*15905 FILLER_19_909
*15906 FILLER_19_921
*15907 FILLER_19_93
*15908 FILLER_19_933
*15909 FILLER_19_945
*15910 FILLER_19_951
*15911 FILLER_19_953
*15912 FILLER_19_965
*15913 FILLER_19_977
*15914 FILLER_19_989
*15915 FILLER_1_1001
*15916 FILLER_1_1007
*15917 FILLER_1_1009
*15918 FILLER_1_1021
*15919 FILLER_1_1033
*15920 FILLER_1_1045
*15921 FILLER_1_105
*15922 FILLER_1_1057
*15923 FILLER_1_1063
*15924 FILLER_1_1065
*15925 FILLER_1_1077
*15926 FILLER_1_1089
*15927 FILLER_1_1101
*15928 FILLER_1_111
*15929 FILLER_1_1113
*15930 FILLER_1_1119
*15931 FILLER_1_1121
*15932 FILLER_1_113
*15933 FILLER_1_1133
*15934 FILLER_1_1145
*15935 FILLER_1_1157
*15936 FILLER_1_1169
*15937 FILLER_1_1175
*15938 FILLER_1_1177
*15939 FILLER_1_1189
*15940 FILLER_1_1201
*15941 FILLER_1_1213
*15942 FILLER_1_1225
*15943 FILLER_1_1231
*15944 FILLER_1_1233
*15945 FILLER_1_1245
*15946 FILLER_1_125
*15947 FILLER_1_1257
*15948 FILLER_1_1269
*15949 FILLER_1_137
*15950 FILLER_1_149
*15951 FILLER_1_15
*15952 FILLER_1_161
*15953 FILLER_1_167
*15954 FILLER_1_169
*15955 FILLER_1_181
*15956 FILLER_1_193
*15957 FILLER_1_205
*15958 FILLER_1_217
*15959 FILLER_1_223
*15960 FILLER_1_225
*15961 FILLER_1_237
*15962 FILLER_1_249
*15963 FILLER_1_261
*15964 FILLER_1_27
*15965 FILLER_1_273
*15966 FILLER_1_279
*15967 FILLER_1_281
*15968 FILLER_1_293
*15969 FILLER_1_3
*15970 FILLER_1_305
*15971 FILLER_1_317
*15972 FILLER_1_329
*15973 FILLER_1_335
*15974 FILLER_1_337
*15975 FILLER_1_349
*15976 FILLER_1_361
*15977 FILLER_1_373
*15978 FILLER_1_385
*15979 FILLER_1_39
*15980 FILLER_1_391
*15981 FILLER_1_393
*15982 FILLER_1_405
*15983 FILLER_1_417
*15984 FILLER_1_429
*15985 FILLER_1_441
*15986 FILLER_1_447
*15987 FILLER_1_449
*15988 FILLER_1_461
*15989 FILLER_1_473
*15990 FILLER_1_485
*15991 FILLER_1_497
*15992 FILLER_1_503
*15993 FILLER_1_505
*15994 FILLER_1_51
*15995 FILLER_1_517
*15996 FILLER_1_529
*15997 FILLER_1_541
*15998 FILLER_1_55
*15999 FILLER_1_553
*16000 FILLER_1_559
*16001 FILLER_1_561
*16002 FILLER_1_57
*16003 FILLER_1_573
*16004 FILLER_1_585
*16005 FILLER_1_597
*16006 FILLER_1_609
*16007 FILLER_1_615
*16008 FILLER_1_617
*16009 FILLER_1_622
*16010 FILLER_1_634
*16011 FILLER_1_646
*16012 FILLER_1_658
*16013 FILLER_1_670
*16014 FILLER_1_673
*16015 FILLER_1_685
*16016 FILLER_1_69
*16017 FILLER_1_697
*16018 FILLER_1_709
*16019 FILLER_1_721
*16020 FILLER_1_727
*16021 FILLER_1_729
*16022 FILLER_1_741
*16023 FILLER_1_753
*16024 FILLER_1_765
*16025 FILLER_1_777
*16026 FILLER_1_783
*16027 FILLER_1_785
*16028 FILLER_1_797
*16029 FILLER_1_809
*16030 FILLER_1_81
*16031 FILLER_1_821
*16032 FILLER_1_833
*16033 FILLER_1_839
*16034 FILLER_1_841
*16035 FILLER_1_853
*16036 FILLER_1_865
*16037 FILLER_1_877
*16038 FILLER_1_889
*16039 FILLER_1_895
*16040 FILLER_1_897
*16041 FILLER_1_909
*16042 FILLER_1_921
*16043 FILLER_1_93
*16044 FILLER_1_933
*16045 FILLER_1_945
*16046 FILLER_1_951
*16047 FILLER_1_953
*16048 FILLER_1_965
*16049 FILLER_1_977
*16050 FILLER_1_989
*16051 FILLER_200_1005
*16052 FILLER_200_1017
*16053 FILLER_200_1029
*16054 FILLER_200_1035
*16055 FILLER_200_1037
*16056 FILLER_200_1049
*16057 FILLER_200_1061
*16058 FILLER_200_1073
*16059 FILLER_200_1085
*16060 FILLER_200_109
*16061 FILLER_200_1091
*16062 FILLER_200_1093
*16063 FILLER_200_1105
*16064 FILLER_200_1117
*16065 FILLER_200_1129
*16066 FILLER_200_1141
*16067 FILLER_200_1147
*16068 FILLER_200_1149
*16069 FILLER_200_1161
*16070 FILLER_200_1173
*16071 FILLER_200_1185
*16072 FILLER_200_1197
*16073 FILLER_200_1203
*16074 FILLER_200_1205
*16075 FILLER_200_121
*16076 FILLER_200_1217
*16077 FILLER_200_1229
*16078 FILLER_200_1241
*16079 FILLER_200_1253
*16080 FILLER_200_1259
*16081 FILLER_200_1261
*16082 FILLER_200_1273
*16083 FILLER_200_133
*16084 FILLER_200_139
*16085 FILLER_200_141
*16086 FILLER_200_15
*16087 FILLER_200_153
*16088 FILLER_200_165
*16089 FILLER_200_177
*16090 FILLER_200_189
*16091 FILLER_200_195
*16092 FILLER_200_197
*16093 FILLER_200_209
*16094 FILLER_200_221
*16095 FILLER_200_233
*16096 FILLER_200_245
*16097 FILLER_200_251
*16098 FILLER_200_253
*16099 FILLER_200_265
*16100 FILLER_200_27
*16101 FILLER_200_277
*16102 FILLER_200_289
*16103 FILLER_200_29
*16104 FILLER_200_3
*16105 FILLER_200_301
*16106 FILLER_200_307
*16107 FILLER_200_309
*16108 FILLER_200_321
*16109 FILLER_200_333
*16110 FILLER_200_345
*16111 FILLER_200_357
*16112 FILLER_200_363
*16113 FILLER_200_365
*16114 FILLER_200_377
*16115 FILLER_200_389
*16116 FILLER_200_401
*16117 FILLER_200_41
*16118 FILLER_200_413
*16119 FILLER_200_419
*16120 FILLER_200_421
*16121 FILLER_200_433
*16122 FILLER_200_445
*16123 FILLER_200_457
*16124 FILLER_200_469
*16125 FILLER_200_475
*16126 FILLER_200_477
*16127 FILLER_200_489
*16128 FILLER_200_501
*16129 FILLER_200_513
*16130 FILLER_200_525
*16131 FILLER_200_53
*16132 FILLER_200_531
*16133 FILLER_200_533
*16134 FILLER_200_545
*16135 FILLER_200_557
*16136 FILLER_200_569
*16137 FILLER_200_581
*16138 FILLER_200_587
*16139 FILLER_200_589
*16140 FILLER_200_601
*16141 FILLER_200_613
*16142 FILLER_200_625
*16143 FILLER_200_637
*16144 FILLER_200_643
*16145 FILLER_200_645
*16146 FILLER_200_65
*16147 FILLER_200_657
*16148 FILLER_200_669
*16149 FILLER_200_681
*16150 FILLER_200_693
*16151 FILLER_200_699
*16152 FILLER_200_701
*16153 FILLER_200_713
*16154 FILLER_200_725
*16155 FILLER_200_737
*16156 FILLER_200_749
*16157 FILLER_200_755
*16158 FILLER_200_757
*16159 FILLER_200_769
*16160 FILLER_200_77
*16161 FILLER_200_781
*16162 FILLER_200_793
*16163 FILLER_200_805
*16164 FILLER_200_811
*16165 FILLER_200_813
*16166 FILLER_200_825
*16167 FILLER_200_83
*16168 FILLER_200_837
*16169 FILLER_200_849
*16170 FILLER_200_85
*16171 FILLER_200_861
*16172 FILLER_200_867
*16173 FILLER_200_869
*16174 FILLER_200_881
*16175 FILLER_200_893
*16176 FILLER_200_905
*16177 FILLER_200_917
*16178 FILLER_200_923
*16179 FILLER_200_925
*16180 FILLER_200_937
*16181 FILLER_200_949
*16182 FILLER_200_961
*16183 FILLER_200_97
*16184 FILLER_200_973
*16185 FILLER_200_979
*16186 FILLER_200_981
*16187 FILLER_200_993
*16188 FILLER_201_1001
*16189 FILLER_201_1007
*16190 FILLER_201_1009
*16191 FILLER_201_1021
*16192 FILLER_201_1033
*16193 FILLER_201_1045
*16194 FILLER_201_105
*16195 FILLER_201_1057
*16196 FILLER_201_1063
*16197 FILLER_201_1065
*16198 FILLER_201_1077
*16199 FILLER_201_1089
*16200 FILLER_201_1101
*16201 FILLER_201_111
*16202 FILLER_201_1113
*16203 FILLER_201_1119
*16204 FILLER_201_1121
*16205 FILLER_201_113
*16206 FILLER_201_1133
*16207 FILLER_201_1145
*16208 FILLER_201_1157
*16209 FILLER_201_1169
*16210 FILLER_201_1175
*16211 FILLER_201_1177
*16212 FILLER_201_1189
*16213 FILLER_201_1201
*16214 FILLER_201_1213
*16215 FILLER_201_1225
*16216 FILLER_201_1231
*16217 FILLER_201_1233
*16218 FILLER_201_1245
*16219 FILLER_201_125
*16220 FILLER_201_1257
*16221 FILLER_201_1269
*16222 FILLER_201_137
*16223 FILLER_201_149
*16224 FILLER_201_15
*16225 FILLER_201_161
*16226 FILLER_201_167
*16227 FILLER_201_169
*16228 FILLER_201_181
*16229 FILLER_201_193
*16230 FILLER_201_205
*16231 FILLER_201_217
*16232 FILLER_201_223
*16233 FILLER_201_225
*16234 FILLER_201_237
*16235 FILLER_201_249
*16236 FILLER_201_261
*16237 FILLER_201_27
*16238 FILLER_201_273
*16239 FILLER_201_279
*16240 FILLER_201_281
*16241 FILLER_201_293
*16242 FILLER_201_3
*16243 FILLER_201_305
*16244 FILLER_201_317
*16245 FILLER_201_329
*16246 FILLER_201_335
*16247 FILLER_201_337
*16248 FILLER_201_349
*16249 FILLER_201_361
*16250 FILLER_201_373
*16251 FILLER_201_385
*16252 FILLER_201_39
*16253 FILLER_201_391
*16254 FILLER_201_393
*16255 FILLER_201_405
*16256 FILLER_201_417
*16257 FILLER_201_429
*16258 FILLER_201_441
*16259 FILLER_201_447
*16260 FILLER_201_449
*16261 FILLER_201_461
*16262 FILLER_201_473
*16263 FILLER_201_485
*16264 FILLER_201_497
*16265 FILLER_201_503
*16266 FILLER_201_505
*16267 FILLER_201_51
*16268 FILLER_201_517
*16269 FILLER_201_529
*16270 FILLER_201_541
*16271 FILLER_201_55
*16272 FILLER_201_553
*16273 FILLER_201_559
*16274 FILLER_201_561
*16275 FILLER_201_57
*16276 FILLER_201_573
*16277 FILLER_201_585
*16278 FILLER_201_597
*16279 FILLER_201_609
*16280 FILLER_201_615
*16281 FILLER_201_617
*16282 FILLER_201_629
*16283 FILLER_201_641
*16284 FILLER_201_653
*16285 FILLER_201_665
*16286 FILLER_201_671
*16287 FILLER_201_673
*16288 FILLER_201_685
*16289 FILLER_201_69
*16290 FILLER_201_697
*16291 FILLER_201_709
*16292 FILLER_201_721
*16293 FILLER_201_727
*16294 FILLER_201_729
*16295 FILLER_201_741
*16296 FILLER_201_753
*16297 FILLER_201_765
*16298 FILLER_201_777
*16299 FILLER_201_783
*16300 FILLER_201_785
*16301 FILLER_201_797
*16302 FILLER_201_809
*16303 FILLER_201_81
*16304 FILLER_201_821
*16305 FILLER_201_833
*16306 FILLER_201_839
*16307 FILLER_201_841
*16308 FILLER_201_853
*16309 FILLER_201_865
*16310 FILLER_201_877
*16311 FILLER_201_889
*16312 FILLER_201_895
*16313 FILLER_201_897
*16314 FILLER_201_909
*16315 FILLER_201_921
*16316 FILLER_201_93
*16317 FILLER_201_933
*16318 FILLER_201_945
*16319 FILLER_201_951
*16320 FILLER_201_953
*16321 FILLER_201_965
*16322 FILLER_201_977
*16323 FILLER_201_989
*16324 FILLER_202_1005
*16325 FILLER_202_1017
*16326 FILLER_202_1029
*16327 FILLER_202_1035
*16328 FILLER_202_1037
*16329 FILLER_202_1049
*16330 FILLER_202_1061
*16331 FILLER_202_1073
*16332 FILLER_202_1085
*16333 FILLER_202_109
*16334 FILLER_202_1091
*16335 FILLER_202_1093
*16336 FILLER_202_1105
*16337 FILLER_202_1117
*16338 FILLER_202_1129
*16339 FILLER_202_1141
*16340 FILLER_202_1147
*16341 FILLER_202_1149
*16342 FILLER_202_1161
*16343 FILLER_202_1173
*16344 FILLER_202_1185
*16345 FILLER_202_1197
*16346 FILLER_202_1203
*16347 FILLER_202_1205
*16348 FILLER_202_121
*16349 FILLER_202_1217
*16350 FILLER_202_1229
*16351 FILLER_202_1241
*16352 FILLER_202_1253
*16353 FILLER_202_1259
*16354 FILLER_202_1261
*16355 FILLER_202_1273
*16356 FILLER_202_133
*16357 FILLER_202_139
*16358 FILLER_202_141
*16359 FILLER_202_15
*16360 FILLER_202_153
*16361 FILLER_202_165
*16362 FILLER_202_177
*16363 FILLER_202_189
*16364 FILLER_202_195
*16365 FILLER_202_197
*16366 FILLER_202_209
*16367 FILLER_202_221
*16368 FILLER_202_233
*16369 FILLER_202_245
*16370 FILLER_202_251
*16371 FILLER_202_253
*16372 FILLER_202_265
*16373 FILLER_202_27
*16374 FILLER_202_277
*16375 FILLER_202_289
*16376 FILLER_202_29
*16377 FILLER_202_3
*16378 FILLER_202_301
*16379 FILLER_202_307
*16380 FILLER_202_309
*16381 FILLER_202_321
*16382 FILLER_202_333
*16383 FILLER_202_345
*16384 FILLER_202_357
*16385 FILLER_202_363
*16386 FILLER_202_365
*16387 FILLER_202_377
*16388 FILLER_202_389
*16389 FILLER_202_401
*16390 FILLER_202_41
*16391 FILLER_202_413
*16392 FILLER_202_419
*16393 FILLER_202_421
*16394 FILLER_202_433
*16395 FILLER_202_445
*16396 FILLER_202_457
*16397 FILLER_202_469
*16398 FILLER_202_475
*16399 FILLER_202_477
*16400 FILLER_202_489
*16401 FILLER_202_501
*16402 FILLER_202_513
*16403 FILLER_202_525
*16404 FILLER_202_53
*16405 FILLER_202_531
*16406 FILLER_202_533
*16407 FILLER_202_545
*16408 FILLER_202_557
*16409 FILLER_202_569
*16410 FILLER_202_581
*16411 FILLER_202_587
*16412 FILLER_202_589
*16413 FILLER_202_601
*16414 FILLER_202_613
*16415 FILLER_202_625
*16416 FILLER_202_637
*16417 FILLER_202_643
*16418 FILLER_202_645
*16419 FILLER_202_65
*16420 FILLER_202_657
*16421 FILLER_202_669
*16422 FILLER_202_681
*16423 FILLER_202_693
*16424 FILLER_202_699
*16425 FILLER_202_701
*16426 FILLER_202_713
*16427 FILLER_202_725
*16428 FILLER_202_737
*16429 FILLER_202_749
*16430 FILLER_202_755
*16431 FILLER_202_757
*16432 FILLER_202_769
*16433 FILLER_202_77
*16434 FILLER_202_781
*16435 FILLER_202_793
*16436 FILLER_202_805
*16437 FILLER_202_811
*16438 FILLER_202_813
*16439 FILLER_202_825
*16440 FILLER_202_83
*16441 FILLER_202_837
*16442 FILLER_202_849
*16443 FILLER_202_85
*16444 FILLER_202_861
*16445 FILLER_202_867
*16446 FILLER_202_869
*16447 FILLER_202_881
*16448 FILLER_202_893
*16449 FILLER_202_905
*16450 FILLER_202_917
*16451 FILLER_202_923
*16452 FILLER_202_925
*16453 FILLER_202_937
*16454 FILLER_202_949
*16455 FILLER_202_961
*16456 FILLER_202_97
*16457 FILLER_202_973
*16458 FILLER_202_979
*16459 FILLER_202_981
*16460 FILLER_202_993
*16461 FILLER_203_1001
*16462 FILLER_203_1007
*16463 FILLER_203_1009
*16464 FILLER_203_1021
*16465 FILLER_203_1033
*16466 FILLER_203_1045
*16467 FILLER_203_105
*16468 FILLER_203_1057
*16469 FILLER_203_1063
*16470 FILLER_203_1065
*16471 FILLER_203_1077
*16472 FILLER_203_1089
*16473 FILLER_203_1101
*16474 FILLER_203_111
*16475 FILLER_203_1113
*16476 FILLER_203_1119
*16477 FILLER_203_1121
*16478 FILLER_203_113
*16479 FILLER_203_1133
*16480 FILLER_203_1145
*16481 FILLER_203_1157
*16482 FILLER_203_1169
*16483 FILLER_203_1175
*16484 FILLER_203_1177
*16485 FILLER_203_1189
*16486 FILLER_203_1201
*16487 FILLER_203_1213
*16488 FILLER_203_1225
*16489 FILLER_203_1231
*16490 FILLER_203_1233
*16491 FILLER_203_1245
*16492 FILLER_203_125
*16493 FILLER_203_1257
*16494 FILLER_203_1269
*16495 FILLER_203_137
*16496 FILLER_203_149
*16497 FILLER_203_15
*16498 FILLER_203_161
*16499 FILLER_203_167
*16500 FILLER_203_169
*16501 FILLER_203_181
*16502 FILLER_203_193
*16503 FILLER_203_205
*16504 FILLER_203_217
*16505 FILLER_203_223
*16506 FILLER_203_225
*16507 FILLER_203_237
*16508 FILLER_203_249
*16509 FILLER_203_261
*16510 FILLER_203_27
*16511 FILLER_203_273
*16512 FILLER_203_279
*16513 FILLER_203_281
*16514 FILLER_203_293
*16515 FILLER_203_3
*16516 FILLER_203_305
*16517 FILLER_203_317
*16518 FILLER_203_329
*16519 FILLER_203_335
*16520 FILLER_203_337
*16521 FILLER_203_349
*16522 FILLER_203_361
*16523 FILLER_203_373
*16524 FILLER_203_385
*16525 FILLER_203_39
*16526 FILLER_203_391
*16527 FILLER_203_393
*16528 FILLER_203_405
*16529 FILLER_203_417
*16530 FILLER_203_429
*16531 FILLER_203_441
*16532 FILLER_203_447
*16533 FILLER_203_449
*16534 FILLER_203_461
*16535 FILLER_203_473
*16536 FILLER_203_485
*16537 FILLER_203_497
*16538 FILLER_203_503
*16539 FILLER_203_505
*16540 FILLER_203_51
*16541 FILLER_203_517
*16542 FILLER_203_529
*16543 FILLER_203_541
*16544 FILLER_203_55
*16545 FILLER_203_553
*16546 FILLER_203_559
*16547 FILLER_203_561
*16548 FILLER_203_57
*16549 FILLER_203_573
*16550 FILLER_203_585
*16551 FILLER_203_597
*16552 FILLER_203_609
*16553 FILLER_203_615
*16554 FILLER_203_617
*16555 FILLER_203_629
*16556 FILLER_203_641
*16557 FILLER_203_653
*16558 FILLER_203_665
*16559 FILLER_203_671
*16560 FILLER_203_673
*16561 FILLER_203_685
*16562 FILLER_203_69
*16563 FILLER_203_697
*16564 FILLER_203_709
*16565 FILLER_203_721
*16566 FILLER_203_727
*16567 FILLER_203_729
*16568 FILLER_203_741
*16569 FILLER_203_753
*16570 FILLER_203_765
*16571 FILLER_203_777
*16572 FILLER_203_783
*16573 FILLER_203_785
*16574 FILLER_203_797
*16575 FILLER_203_809
*16576 FILLER_203_81
*16577 FILLER_203_821
*16578 FILLER_203_833
*16579 FILLER_203_839
*16580 FILLER_203_841
*16581 FILLER_203_853
*16582 FILLER_203_865
*16583 FILLER_203_877
*16584 FILLER_203_889
*16585 FILLER_203_895
*16586 FILLER_203_897
*16587 FILLER_203_909
*16588 FILLER_203_921
*16589 FILLER_203_93
*16590 FILLER_203_933
*16591 FILLER_203_945
*16592 FILLER_203_951
*16593 FILLER_203_953
*16594 FILLER_203_965
*16595 FILLER_203_977
*16596 FILLER_203_989
*16597 FILLER_204_1005
*16598 FILLER_204_1017
*16599 FILLER_204_1029
*16600 FILLER_204_1035
*16601 FILLER_204_1037
*16602 FILLER_204_1049
*16603 FILLER_204_1061
*16604 FILLER_204_1073
*16605 FILLER_204_1085
*16606 FILLER_204_109
*16607 FILLER_204_1091
*16608 FILLER_204_1093
*16609 FILLER_204_1105
*16610 FILLER_204_1117
*16611 FILLER_204_1129
*16612 FILLER_204_1141
*16613 FILLER_204_1147
*16614 FILLER_204_1149
*16615 FILLER_204_1161
*16616 FILLER_204_1173
*16617 FILLER_204_1185
*16618 FILLER_204_1197
*16619 FILLER_204_1203
*16620 FILLER_204_1205
*16621 FILLER_204_121
*16622 FILLER_204_1217
*16623 FILLER_204_1229
*16624 FILLER_204_1241
*16625 FILLER_204_1253
*16626 FILLER_204_1259
*16627 FILLER_204_1261
*16628 FILLER_204_1273
*16629 FILLER_204_133
*16630 FILLER_204_139
*16631 FILLER_204_141
*16632 FILLER_204_15
*16633 FILLER_204_153
*16634 FILLER_204_165
*16635 FILLER_204_177
*16636 FILLER_204_189
*16637 FILLER_204_195
*16638 FILLER_204_197
*16639 FILLER_204_209
*16640 FILLER_204_221
*16641 FILLER_204_233
*16642 FILLER_204_245
*16643 FILLER_204_251
*16644 FILLER_204_253
*16645 FILLER_204_265
*16646 FILLER_204_27
*16647 FILLER_204_277
*16648 FILLER_204_289
*16649 FILLER_204_29
*16650 FILLER_204_3
*16651 FILLER_204_301
*16652 FILLER_204_307
*16653 FILLER_204_309
*16654 FILLER_204_321
*16655 FILLER_204_333
*16656 FILLER_204_345
*16657 FILLER_204_357
*16658 FILLER_204_363
*16659 FILLER_204_365
*16660 FILLER_204_377
*16661 FILLER_204_389
*16662 FILLER_204_401
*16663 FILLER_204_41
*16664 FILLER_204_413
*16665 FILLER_204_419
*16666 FILLER_204_421
*16667 FILLER_204_433
*16668 FILLER_204_445
*16669 FILLER_204_457
*16670 FILLER_204_469
*16671 FILLER_204_475
*16672 FILLER_204_477
*16673 FILLER_204_489
*16674 FILLER_204_501
*16675 FILLER_204_513
*16676 FILLER_204_525
*16677 FILLER_204_53
*16678 FILLER_204_531
*16679 FILLER_204_533
*16680 FILLER_204_545
*16681 FILLER_204_557
*16682 FILLER_204_569
*16683 FILLER_204_581
*16684 FILLER_204_587
*16685 FILLER_204_589
*16686 FILLER_204_601
*16687 FILLER_204_613
*16688 FILLER_204_625
*16689 FILLER_204_637
*16690 FILLER_204_643
*16691 FILLER_204_645
*16692 FILLER_204_65
*16693 FILLER_204_657
*16694 FILLER_204_669
*16695 FILLER_204_681
*16696 FILLER_204_693
*16697 FILLER_204_699
*16698 FILLER_204_701
*16699 FILLER_204_713
*16700 FILLER_204_725
*16701 FILLER_204_737
*16702 FILLER_204_749
*16703 FILLER_204_755
*16704 FILLER_204_757
*16705 FILLER_204_769
*16706 FILLER_204_77
*16707 FILLER_204_781
*16708 FILLER_204_793
*16709 FILLER_204_805
*16710 FILLER_204_811
*16711 FILLER_204_813
*16712 FILLER_204_825
*16713 FILLER_204_83
*16714 FILLER_204_837
*16715 FILLER_204_849
*16716 FILLER_204_85
*16717 FILLER_204_861
*16718 FILLER_204_867
*16719 FILLER_204_869
*16720 FILLER_204_881
*16721 FILLER_204_893
*16722 FILLER_204_905
*16723 FILLER_204_917
*16724 FILLER_204_923
*16725 FILLER_204_925
*16726 FILLER_204_937
*16727 FILLER_204_949
*16728 FILLER_204_961
*16729 FILLER_204_97
*16730 FILLER_204_973
*16731 FILLER_204_979
*16732 FILLER_204_981
*16733 FILLER_204_993
*16734 FILLER_205_1001
*16735 FILLER_205_1007
*16736 FILLER_205_1009
*16737 FILLER_205_1021
*16738 FILLER_205_1033
*16739 FILLER_205_1045
*16740 FILLER_205_105
*16741 FILLER_205_1057
*16742 FILLER_205_1063
*16743 FILLER_205_1065
*16744 FILLER_205_1077
*16745 FILLER_205_1089
*16746 FILLER_205_1101
*16747 FILLER_205_111
*16748 FILLER_205_1113
*16749 FILLER_205_1119
*16750 FILLER_205_1121
*16751 FILLER_205_113
*16752 FILLER_205_1133
*16753 FILLER_205_1145
*16754 FILLER_205_1157
*16755 FILLER_205_1169
*16756 FILLER_205_1175
*16757 FILLER_205_1177
*16758 FILLER_205_1189
*16759 FILLER_205_1201
*16760 FILLER_205_1213
*16761 FILLER_205_1225
*16762 FILLER_205_1231
*16763 FILLER_205_1233
*16764 FILLER_205_1245
*16765 FILLER_205_125
*16766 FILLER_205_1257
*16767 FILLER_205_1269
*16768 FILLER_205_137
*16769 FILLER_205_149
*16770 FILLER_205_15
*16771 FILLER_205_161
*16772 FILLER_205_167
*16773 FILLER_205_169
*16774 FILLER_205_181
*16775 FILLER_205_193
*16776 FILLER_205_205
*16777 FILLER_205_217
*16778 FILLER_205_223
*16779 FILLER_205_225
*16780 FILLER_205_237
*16781 FILLER_205_249
*16782 FILLER_205_261
*16783 FILLER_205_27
*16784 FILLER_205_273
*16785 FILLER_205_279
*16786 FILLER_205_281
*16787 FILLER_205_293
*16788 FILLER_205_3
*16789 FILLER_205_305
*16790 FILLER_205_317
*16791 FILLER_205_329
*16792 FILLER_205_335
*16793 FILLER_205_337
*16794 FILLER_205_349
*16795 FILLER_205_361
*16796 FILLER_205_373
*16797 FILLER_205_385
*16798 FILLER_205_39
*16799 FILLER_205_391
*16800 FILLER_205_393
*16801 FILLER_205_405
*16802 FILLER_205_417
*16803 FILLER_205_429
*16804 FILLER_205_441
*16805 FILLER_205_447
*16806 FILLER_205_449
*16807 FILLER_205_461
*16808 FILLER_205_473
*16809 FILLER_205_485
*16810 FILLER_205_497
*16811 FILLER_205_503
*16812 FILLER_205_505
*16813 FILLER_205_51
*16814 FILLER_205_517
*16815 FILLER_205_529
*16816 FILLER_205_541
*16817 FILLER_205_55
*16818 FILLER_205_553
*16819 FILLER_205_559
*16820 FILLER_205_561
*16821 FILLER_205_57
*16822 FILLER_205_573
*16823 FILLER_205_585
*16824 FILLER_205_597
*16825 FILLER_205_609
*16826 FILLER_205_615
*16827 FILLER_205_617
*16828 FILLER_205_629
*16829 FILLER_205_641
*16830 FILLER_205_653
*16831 FILLER_205_665
*16832 FILLER_205_671
*16833 FILLER_205_673
*16834 FILLER_205_685
*16835 FILLER_205_69
*16836 FILLER_205_697
*16837 FILLER_205_709
*16838 FILLER_205_721
*16839 FILLER_205_727
*16840 FILLER_205_729
*16841 FILLER_205_741
*16842 FILLER_205_753
*16843 FILLER_205_765
*16844 FILLER_205_777
*16845 FILLER_205_783
*16846 FILLER_205_785
*16847 FILLER_205_797
*16848 FILLER_205_809
*16849 FILLER_205_81
*16850 FILLER_205_821
*16851 FILLER_205_833
*16852 FILLER_205_839
*16853 FILLER_205_841
*16854 FILLER_205_853
*16855 FILLER_205_865
*16856 FILLER_205_877
*16857 FILLER_205_889
*16858 FILLER_205_895
*16859 FILLER_205_897
*16860 FILLER_205_909
*16861 FILLER_205_921
*16862 FILLER_205_93
*16863 FILLER_205_933
*16864 FILLER_205_945
*16865 FILLER_205_951
*16866 FILLER_205_953
*16867 FILLER_205_965
*16868 FILLER_205_977
*16869 FILLER_205_989
*16870 FILLER_206_1005
*16871 FILLER_206_1017
*16872 FILLER_206_1029
*16873 FILLER_206_1035
*16874 FILLER_206_1037
*16875 FILLER_206_1049
*16876 FILLER_206_1061
*16877 FILLER_206_1073
*16878 FILLER_206_1085
*16879 FILLER_206_109
*16880 FILLER_206_1091
*16881 FILLER_206_1093
*16882 FILLER_206_1105
*16883 FILLER_206_1117
*16884 FILLER_206_1129
*16885 FILLER_206_1141
*16886 FILLER_206_1147
*16887 FILLER_206_1149
*16888 FILLER_206_1161
*16889 FILLER_206_1173
*16890 FILLER_206_1185
*16891 FILLER_206_1197
*16892 FILLER_206_1203
*16893 FILLER_206_1205
*16894 FILLER_206_121
*16895 FILLER_206_1217
*16896 FILLER_206_1229
*16897 FILLER_206_1241
*16898 FILLER_206_1253
*16899 FILLER_206_1259
*16900 FILLER_206_1261
*16901 FILLER_206_1273
*16902 FILLER_206_133
*16903 FILLER_206_139
*16904 FILLER_206_141
*16905 FILLER_206_15
*16906 FILLER_206_153
*16907 FILLER_206_165
*16908 FILLER_206_177
*16909 FILLER_206_189
*16910 FILLER_206_195
*16911 FILLER_206_197
*16912 FILLER_206_209
*16913 FILLER_206_221
*16914 FILLER_206_233
*16915 FILLER_206_245
*16916 FILLER_206_251
*16917 FILLER_206_253
*16918 FILLER_206_265
*16919 FILLER_206_27
*16920 FILLER_206_277
*16921 FILLER_206_289
*16922 FILLER_206_29
*16923 FILLER_206_3
*16924 FILLER_206_301
*16925 FILLER_206_307
*16926 FILLER_206_309
*16927 FILLER_206_321
*16928 FILLER_206_333
*16929 FILLER_206_345
*16930 FILLER_206_357
*16931 FILLER_206_363
*16932 FILLER_206_365
*16933 FILLER_206_377
*16934 FILLER_206_389
*16935 FILLER_206_401
*16936 FILLER_206_41
*16937 FILLER_206_413
*16938 FILLER_206_419
*16939 FILLER_206_421
*16940 FILLER_206_433
*16941 FILLER_206_445
*16942 FILLER_206_457
*16943 FILLER_206_469
*16944 FILLER_206_475
*16945 FILLER_206_477
*16946 FILLER_206_489
*16947 FILLER_206_501
*16948 FILLER_206_513
*16949 FILLER_206_525
*16950 FILLER_206_53
*16951 FILLER_206_531
*16952 FILLER_206_533
*16953 FILLER_206_545
*16954 FILLER_206_557
*16955 FILLER_206_569
*16956 FILLER_206_581
*16957 FILLER_206_587
*16958 FILLER_206_589
*16959 FILLER_206_601
*16960 FILLER_206_613
*16961 FILLER_206_625
*16962 FILLER_206_637
*16963 FILLER_206_643
*16964 FILLER_206_645
*16965 FILLER_206_65
*16966 FILLER_206_657
*16967 FILLER_206_669
*16968 FILLER_206_681
*16969 FILLER_206_693
*16970 FILLER_206_699
*16971 FILLER_206_701
*16972 FILLER_206_713
*16973 FILLER_206_725
*16974 FILLER_206_737
*16975 FILLER_206_749
*16976 FILLER_206_755
*16977 FILLER_206_757
*16978 FILLER_206_769
*16979 FILLER_206_77
*16980 FILLER_206_781
*16981 FILLER_206_793
*16982 FILLER_206_805
*16983 FILLER_206_811
*16984 FILLER_206_813
*16985 FILLER_206_825
*16986 FILLER_206_83
*16987 FILLER_206_837
*16988 FILLER_206_849
*16989 FILLER_206_85
*16990 FILLER_206_861
*16991 FILLER_206_867
*16992 FILLER_206_869
*16993 FILLER_206_881
*16994 FILLER_206_893
*16995 FILLER_206_905
*16996 FILLER_206_917
*16997 FILLER_206_923
*16998 FILLER_206_925
*16999 FILLER_206_937
*17000 FILLER_206_949
*17001 FILLER_206_961
*17002 FILLER_206_97
*17003 FILLER_206_973
*17004 FILLER_206_979
*17005 FILLER_206_981
*17006 FILLER_206_993
*17007 FILLER_207_1001
*17008 FILLER_207_1007
*17009 FILLER_207_1009
*17010 FILLER_207_1021
*17011 FILLER_207_1033
*17012 FILLER_207_1045
*17013 FILLER_207_105
*17014 FILLER_207_1057
*17015 FILLER_207_1063
*17016 FILLER_207_1065
*17017 FILLER_207_1077
*17018 FILLER_207_1089
*17019 FILLER_207_1101
*17020 FILLER_207_111
*17021 FILLER_207_1113
*17022 FILLER_207_1119
*17023 FILLER_207_1121
*17024 FILLER_207_113
*17025 FILLER_207_1133
*17026 FILLER_207_1145
*17027 FILLER_207_1157
*17028 FILLER_207_1169
*17029 FILLER_207_1175
*17030 FILLER_207_1177
*17031 FILLER_207_1189
*17032 FILLER_207_1201
*17033 FILLER_207_1213
*17034 FILLER_207_1225
*17035 FILLER_207_1231
*17036 FILLER_207_1233
*17037 FILLER_207_1245
*17038 FILLER_207_125
*17039 FILLER_207_1257
*17040 FILLER_207_1269
*17041 FILLER_207_137
*17042 FILLER_207_149
*17043 FILLER_207_15
*17044 FILLER_207_161
*17045 FILLER_207_167
*17046 FILLER_207_169
*17047 FILLER_207_181
*17048 FILLER_207_193
*17049 FILLER_207_205
*17050 FILLER_207_217
*17051 FILLER_207_223
*17052 FILLER_207_225
*17053 FILLER_207_237
*17054 FILLER_207_249
*17055 FILLER_207_261
*17056 FILLER_207_27
*17057 FILLER_207_273
*17058 FILLER_207_279
*17059 FILLER_207_281
*17060 FILLER_207_293
*17061 FILLER_207_3
*17062 FILLER_207_305
*17063 FILLER_207_317
*17064 FILLER_207_329
*17065 FILLER_207_335
*17066 FILLER_207_337
*17067 FILLER_207_349
*17068 FILLER_207_361
*17069 FILLER_207_373
*17070 FILLER_207_385
*17071 FILLER_207_39
*17072 FILLER_207_391
*17073 FILLER_207_393
*17074 FILLER_207_405
*17075 FILLER_207_417
*17076 FILLER_207_429
*17077 FILLER_207_441
*17078 FILLER_207_447
*17079 FILLER_207_449
*17080 FILLER_207_461
*17081 FILLER_207_473
*17082 FILLER_207_485
*17083 FILLER_207_497
*17084 FILLER_207_503
*17085 FILLER_207_505
*17086 FILLER_207_51
*17087 FILLER_207_517
*17088 FILLER_207_529
*17089 FILLER_207_541
*17090 FILLER_207_55
*17091 FILLER_207_553
*17092 FILLER_207_559
*17093 FILLER_207_561
*17094 FILLER_207_57
*17095 FILLER_207_573
*17096 FILLER_207_585
*17097 FILLER_207_597
*17098 FILLER_207_609
*17099 FILLER_207_615
*17100 FILLER_207_617
*17101 FILLER_207_629
*17102 FILLER_207_641
*17103 FILLER_207_653
*17104 FILLER_207_665
*17105 FILLER_207_671
*17106 FILLER_207_673
*17107 FILLER_207_685
*17108 FILLER_207_69
*17109 FILLER_207_697
*17110 FILLER_207_709
*17111 FILLER_207_721
*17112 FILLER_207_727
*17113 FILLER_207_729
*17114 FILLER_207_741
*17115 FILLER_207_753
*17116 FILLER_207_765
*17117 FILLER_207_777
*17118 FILLER_207_783
*17119 FILLER_207_785
*17120 FILLER_207_797
*17121 FILLER_207_809
*17122 FILLER_207_81
*17123 FILLER_207_821
*17124 FILLER_207_833
*17125 FILLER_207_839
*17126 FILLER_207_841
*17127 FILLER_207_853
*17128 FILLER_207_865
*17129 FILLER_207_877
*17130 FILLER_207_889
*17131 FILLER_207_895
*17132 FILLER_207_897
*17133 FILLER_207_909
*17134 FILLER_207_921
*17135 FILLER_207_93
*17136 FILLER_207_933
*17137 FILLER_207_945
*17138 FILLER_207_951
*17139 FILLER_207_953
*17140 FILLER_207_965
*17141 FILLER_207_977
*17142 FILLER_207_989
*17143 FILLER_208_1005
*17144 FILLER_208_1017
*17145 FILLER_208_1029
*17146 FILLER_208_1035
*17147 FILLER_208_1037
*17148 FILLER_208_1049
*17149 FILLER_208_1061
*17150 FILLER_208_1073
*17151 FILLER_208_1085
*17152 FILLER_208_109
*17153 FILLER_208_1091
*17154 FILLER_208_1093
*17155 FILLER_208_1105
*17156 FILLER_208_1117
*17157 FILLER_208_1129
*17158 FILLER_208_1141
*17159 FILLER_208_1147
*17160 FILLER_208_1149
*17161 FILLER_208_1161
*17162 FILLER_208_1173
*17163 FILLER_208_1185
*17164 FILLER_208_1197
*17165 FILLER_208_1203
*17166 FILLER_208_1205
*17167 FILLER_208_121
*17168 FILLER_208_1217
*17169 FILLER_208_1229
*17170 FILLER_208_1241
*17171 FILLER_208_1253
*17172 FILLER_208_1259
*17173 FILLER_208_1261
*17174 FILLER_208_1273
*17175 FILLER_208_133
*17176 FILLER_208_139
*17177 FILLER_208_141
*17178 FILLER_208_15
*17179 FILLER_208_153
*17180 FILLER_208_165
*17181 FILLER_208_177
*17182 FILLER_208_189
*17183 FILLER_208_195
*17184 FILLER_208_197
*17185 FILLER_208_209
*17186 FILLER_208_221
*17187 FILLER_208_233
*17188 FILLER_208_245
*17189 FILLER_208_251
*17190 FILLER_208_253
*17191 FILLER_208_265
*17192 FILLER_208_27
*17193 FILLER_208_277
*17194 FILLER_208_289
*17195 FILLER_208_29
*17196 FILLER_208_3
*17197 FILLER_208_301
*17198 FILLER_208_307
*17199 FILLER_208_309
*17200 FILLER_208_321
*17201 FILLER_208_333
*17202 FILLER_208_345
*17203 FILLER_208_357
*17204 FILLER_208_363
*17205 FILLER_208_365
*17206 FILLER_208_377
*17207 FILLER_208_389
*17208 FILLER_208_401
*17209 FILLER_208_41
*17210 FILLER_208_413
*17211 FILLER_208_419
*17212 FILLER_208_421
*17213 FILLER_208_433
*17214 FILLER_208_445
*17215 FILLER_208_457
*17216 FILLER_208_469
*17217 FILLER_208_475
*17218 FILLER_208_477
*17219 FILLER_208_489
*17220 FILLER_208_501
*17221 FILLER_208_513
*17222 FILLER_208_525
*17223 FILLER_208_53
*17224 FILLER_208_531
*17225 FILLER_208_533
*17226 FILLER_208_545
*17227 FILLER_208_557
*17228 FILLER_208_569
*17229 FILLER_208_581
*17230 FILLER_208_587
*17231 FILLER_208_589
*17232 FILLER_208_601
*17233 FILLER_208_613
*17234 FILLER_208_625
*17235 FILLER_208_637
*17236 FILLER_208_643
*17237 FILLER_208_645
*17238 FILLER_208_65
*17239 FILLER_208_657
*17240 FILLER_208_669
*17241 FILLER_208_681
*17242 FILLER_208_693
*17243 FILLER_208_699
*17244 FILLER_208_701
*17245 FILLER_208_713
*17246 FILLER_208_725
*17247 FILLER_208_737
*17248 FILLER_208_749
*17249 FILLER_208_755
*17250 FILLER_208_757
*17251 FILLER_208_769
*17252 FILLER_208_77
*17253 FILLER_208_781
*17254 FILLER_208_793
*17255 FILLER_208_805
*17256 FILLER_208_811
*17257 FILLER_208_813
*17258 FILLER_208_825
*17259 FILLER_208_83
*17260 FILLER_208_837
*17261 FILLER_208_849
*17262 FILLER_208_85
*17263 FILLER_208_861
*17264 FILLER_208_867
*17265 FILLER_208_869
*17266 FILLER_208_881
*17267 FILLER_208_893
*17268 FILLER_208_905
*17269 FILLER_208_917
*17270 FILLER_208_923
*17271 FILLER_208_925
*17272 FILLER_208_937
*17273 FILLER_208_949
*17274 FILLER_208_961
*17275 FILLER_208_97
*17276 FILLER_208_973
*17277 FILLER_208_979
*17278 FILLER_208_981
*17279 FILLER_208_993
*17280 FILLER_209_1001
*17281 FILLER_209_1007
*17282 FILLER_209_1009
*17283 FILLER_209_1021
*17284 FILLER_209_1033
*17285 FILLER_209_1045
*17286 FILLER_209_105
*17287 FILLER_209_1057
*17288 FILLER_209_1063
*17289 FILLER_209_1065
*17290 FILLER_209_1077
*17291 FILLER_209_1089
*17292 FILLER_209_1101
*17293 FILLER_209_111
*17294 FILLER_209_1113
*17295 FILLER_209_1119
*17296 FILLER_209_1121
*17297 FILLER_209_113
*17298 FILLER_209_1133
*17299 FILLER_209_1145
*17300 FILLER_209_1157
*17301 FILLER_209_1169
*17302 FILLER_209_1175
*17303 FILLER_209_1177
*17304 FILLER_209_1189
*17305 FILLER_209_1201
*17306 FILLER_209_1213
*17307 FILLER_209_1225
*17308 FILLER_209_1231
*17309 FILLER_209_1233
*17310 FILLER_209_1245
*17311 FILLER_209_125
*17312 FILLER_209_1257
*17313 FILLER_209_1269
*17314 FILLER_209_137
*17315 FILLER_209_149
*17316 FILLER_209_15
*17317 FILLER_209_161
*17318 FILLER_209_167
*17319 FILLER_209_169
*17320 FILLER_209_181
*17321 FILLER_209_193
*17322 FILLER_209_205
*17323 FILLER_209_217
*17324 FILLER_209_223
*17325 FILLER_209_225
*17326 FILLER_209_237
*17327 FILLER_209_249
*17328 FILLER_209_261
*17329 FILLER_209_27
*17330 FILLER_209_273
*17331 FILLER_209_279
*17332 FILLER_209_281
*17333 FILLER_209_293
*17334 FILLER_209_3
*17335 FILLER_209_305
*17336 FILLER_209_317
*17337 FILLER_209_329
*17338 FILLER_209_335
*17339 FILLER_209_337
*17340 FILLER_209_349
*17341 FILLER_209_361
*17342 FILLER_209_373
*17343 FILLER_209_385
*17344 FILLER_209_39
*17345 FILLER_209_391
*17346 FILLER_209_393
*17347 FILLER_209_405
*17348 FILLER_209_417
*17349 FILLER_209_429
*17350 FILLER_209_441
*17351 FILLER_209_447
*17352 FILLER_209_449
*17353 FILLER_209_461
*17354 FILLER_209_470
*17355 FILLER_209_482
*17356 FILLER_209_494
*17357 FILLER_209_502
*17358 FILLER_209_505
*17359 FILLER_209_51
*17360 FILLER_209_517
*17361 FILLER_209_529
*17362 FILLER_209_541
*17363 FILLER_209_55
*17364 FILLER_209_553
*17365 FILLER_209_559
*17366 FILLER_209_561
*17367 FILLER_209_566
*17368 FILLER_209_57
*17369 FILLER_209_578
*17370 FILLER_209_590
*17371 FILLER_209_599
*17372 FILLER_209_611
*17373 FILLER_209_615
*17374 FILLER_209_617
*17375 FILLER_209_629
*17376 FILLER_209_641
*17377 FILLER_209_653
*17378 FILLER_209_665
*17379 FILLER_209_671
*17380 FILLER_209_673
*17381 FILLER_209_685
*17382 FILLER_209_69
*17383 FILLER_209_697
*17384 FILLER_209_709
*17385 FILLER_209_721
*17386 FILLER_209_727
*17387 FILLER_209_729
*17388 FILLER_209_741
*17389 FILLER_209_753
*17390 FILLER_209_765
*17391 FILLER_209_777
*17392 FILLER_209_783
*17393 FILLER_209_785
*17394 FILLER_209_797
*17395 FILLER_209_809
*17396 FILLER_209_81
*17397 FILLER_209_821
*17398 FILLER_209_833
*17399 FILLER_209_839
*17400 FILLER_209_841
*17401 FILLER_209_853
*17402 FILLER_209_865
*17403 FILLER_209_870
*17404 FILLER_209_875
*17405 FILLER_209_887
*17406 FILLER_209_895
*17407 FILLER_209_897
*17408 FILLER_209_903
*17409 FILLER_209_915
*17410 FILLER_209_927
*17411 FILLER_209_93
*17412 FILLER_209_931
*17413 FILLER_209_943
*17414 FILLER_209_951
*17415 FILLER_209_953
*17416 FILLER_209_965
*17417 FILLER_209_977
*17418 FILLER_209_989
*17419 FILLER_20_1005
*17420 FILLER_20_1017
*17421 FILLER_20_1029
*17422 FILLER_20_1035
*17423 FILLER_20_1037
*17424 FILLER_20_1049
*17425 FILLER_20_1061
*17426 FILLER_20_1073
*17427 FILLER_20_1085
*17428 FILLER_20_109
*17429 FILLER_20_1091
*17430 FILLER_20_1093
*17431 FILLER_20_1105
*17432 FILLER_20_1117
*17433 FILLER_20_1129
*17434 FILLER_20_1141
*17435 FILLER_20_1147
*17436 FILLER_20_1149
*17437 FILLER_20_1161
*17438 FILLER_20_1173
*17439 FILLER_20_1185
*17440 FILLER_20_1197
*17441 FILLER_20_1203
*17442 FILLER_20_1205
*17443 FILLER_20_121
*17444 FILLER_20_1217
*17445 FILLER_20_1229
*17446 FILLER_20_1241
*17447 FILLER_20_1253
*17448 FILLER_20_1259
*17449 FILLER_20_1261
*17450 FILLER_20_1273
*17451 FILLER_20_133
*17452 FILLER_20_139
*17453 FILLER_20_141
*17454 FILLER_20_15
*17455 FILLER_20_153
*17456 FILLER_20_165
*17457 FILLER_20_177
*17458 FILLER_20_189
*17459 FILLER_20_195
*17460 FILLER_20_197
*17461 FILLER_20_209
*17462 FILLER_20_221
*17463 FILLER_20_233
*17464 FILLER_20_245
*17465 FILLER_20_251
*17466 FILLER_20_253
*17467 FILLER_20_265
*17468 FILLER_20_27
*17469 FILLER_20_277
*17470 FILLER_20_289
*17471 FILLER_20_29
*17472 FILLER_20_3
*17473 FILLER_20_301
*17474 FILLER_20_307
*17475 FILLER_20_309
*17476 FILLER_20_321
*17477 FILLER_20_333
*17478 FILLER_20_345
*17479 FILLER_20_357
*17480 FILLER_20_363
*17481 FILLER_20_365
*17482 FILLER_20_377
*17483 FILLER_20_389
*17484 FILLER_20_401
*17485 FILLER_20_41
*17486 FILLER_20_413
*17487 FILLER_20_419
*17488 FILLER_20_421
*17489 FILLER_20_433
*17490 FILLER_20_445
*17491 FILLER_20_457
*17492 FILLER_20_469
*17493 FILLER_20_475
*17494 FILLER_20_477
*17495 FILLER_20_489
*17496 FILLER_20_501
*17497 FILLER_20_513
*17498 FILLER_20_525
*17499 FILLER_20_53
*17500 FILLER_20_531
*17501 FILLER_20_533
*17502 FILLER_20_545
*17503 FILLER_20_557
*17504 FILLER_20_569
*17505 FILLER_20_581
*17506 FILLER_20_587
*17507 FILLER_20_589
*17508 FILLER_20_601
*17509 FILLER_20_613
*17510 FILLER_20_625
*17511 FILLER_20_637
*17512 FILLER_20_643
*17513 FILLER_20_645
*17514 FILLER_20_65
*17515 FILLER_20_657
*17516 FILLER_20_669
*17517 FILLER_20_681
*17518 FILLER_20_693
*17519 FILLER_20_699
*17520 FILLER_20_701
*17521 FILLER_20_713
*17522 FILLER_20_725
*17523 FILLER_20_737
*17524 FILLER_20_749
*17525 FILLER_20_755
*17526 FILLER_20_757
*17527 FILLER_20_769
*17528 FILLER_20_77
*17529 FILLER_20_781
*17530 FILLER_20_793
*17531 FILLER_20_805
*17532 FILLER_20_811
*17533 FILLER_20_813
*17534 FILLER_20_825
*17535 FILLER_20_83
*17536 FILLER_20_837
*17537 FILLER_20_849
*17538 FILLER_20_85
*17539 FILLER_20_861
*17540 FILLER_20_867
*17541 FILLER_20_869
*17542 FILLER_20_881
*17543 FILLER_20_893
*17544 FILLER_20_905
*17545 FILLER_20_917
*17546 FILLER_20_923
*17547 FILLER_20_925
*17548 FILLER_20_937
*17549 FILLER_20_949
*17550 FILLER_20_961
*17551 FILLER_20_97
*17552 FILLER_20_973
*17553 FILLER_20_979
*17554 FILLER_20_981
*17555 FILLER_20_993
*17556 FILLER_210_1005
*17557 FILLER_210_1017
*17558 FILLER_210_1029
*17559 FILLER_210_1035
*17560 FILLER_210_1037
*17561 FILLER_210_1049
*17562 FILLER_210_1061
*17563 FILLER_210_1073
*17564 FILLER_210_1085
*17565 FILLER_210_109
*17566 FILLER_210_1091
*17567 FILLER_210_1093
*17568 FILLER_210_1105
*17569 FILLER_210_1117
*17570 FILLER_210_1129
*17571 FILLER_210_1141
*17572 FILLER_210_1147
*17573 FILLER_210_1149
*17574 FILLER_210_1161
*17575 FILLER_210_1173
*17576 FILLER_210_1185
*17577 FILLER_210_1197
*17578 FILLER_210_1203
*17579 FILLER_210_1205
*17580 FILLER_210_121
*17581 FILLER_210_1217
*17582 FILLER_210_1229
*17583 FILLER_210_1241
*17584 FILLER_210_1253
*17585 FILLER_210_1259
*17586 FILLER_210_1261
*17587 FILLER_210_1273
*17588 FILLER_210_133
*17589 FILLER_210_139
*17590 FILLER_210_141
*17591 FILLER_210_15
*17592 FILLER_210_153
*17593 FILLER_210_165
*17594 FILLER_210_177
*17595 FILLER_210_189
*17596 FILLER_210_195
*17597 FILLER_210_197
*17598 FILLER_210_209
*17599 FILLER_210_221
*17600 FILLER_210_233
*17601 FILLER_210_245
*17602 FILLER_210_251
*17603 FILLER_210_253
*17604 FILLER_210_265
*17605 FILLER_210_27
*17606 FILLER_210_277
*17607 FILLER_210_289
*17608 FILLER_210_29
*17609 FILLER_210_3
*17610 FILLER_210_301
*17611 FILLER_210_307
*17612 FILLER_210_309
*17613 FILLER_210_321
*17614 FILLER_210_333
*17615 FILLER_210_345
*17616 FILLER_210_357
*17617 FILLER_210_363
*17618 FILLER_210_365
*17619 FILLER_210_377
*17620 FILLER_210_389
*17621 FILLER_210_401
*17622 FILLER_210_41
*17623 FILLER_210_413
*17624 FILLER_210_419
*17625 FILLER_210_421
*17626 FILLER_210_433
*17627 FILLER_210_445
*17628 FILLER_210_457
*17629 FILLER_210_469
*17630 FILLER_210_475
*17631 FILLER_210_477
*17632 FILLER_210_489
*17633 FILLER_210_501
*17634 FILLER_210_513
*17635 FILLER_210_525
*17636 FILLER_210_53
*17637 FILLER_210_531
*17638 FILLER_210_533
*17639 FILLER_210_545
*17640 FILLER_210_557
*17641 FILLER_210_569
*17642 FILLER_210_581
*17643 FILLER_210_587
*17644 FILLER_210_589
*17645 FILLER_210_601
*17646 FILLER_210_613
*17647 FILLER_210_625
*17648 FILLER_210_637
*17649 FILLER_210_643
*17650 FILLER_210_645
*17651 FILLER_210_65
*17652 FILLER_210_657
*17653 FILLER_210_669
*17654 FILLER_210_681
*17655 FILLER_210_693
*17656 FILLER_210_699
*17657 FILLER_210_701
*17658 FILLER_210_713
*17659 FILLER_210_725
*17660 FILLER_210_737
*17661 FILLER_210_749
*17662 FILLER_210_755
*17663 FILLER_210_757
*17664 FILLER_210_769
*17665 FILLER_210_77
*17666 FILLER_210_781
*17667 FILLER_210_793
*17668 FILLER_210_805
*17669 FILLER_210_811
*17670 FILLER_210_813
*17671 FILLER_210_825
*17672 FILLER_210_83
*17673 FILLER_210_837
*17674 FILLER_210_849
*17675 FILLER_210_85
*17676 FILLER_210_861
*17677 FILLER_210_867
*17678 FILLER_210_869
*17679 FILLER_210_881
*17680 FILLER_210_893
*17681 FILLER_210_905
*17682 FILLER_210_917
*17683 FILLER_210_923
*17684 FILLER_210_925
*17685 FILLER_210_937
*17686 FILLER_210_949
*17687 FILLER_210_961
*17688 FILLER_210_97
*17689 FILLER_210_973
*17690 FILLER_210_979
*17691 FILLER_210_981
*17692 FILLER_210_993
*17693 FILLER_211_1005
*17694 FILLER_211_1009
*17695 FILLER_211_1021
*17696 FILLER_211_1033
*17697 FILLER_211_1037
*17698 FILLER_211_1049
*17699 FILLER_211_1061
*17700 FILLER_211_1065
*17701 FILLER_211_1077
*17702 FILLER_211_1089
*17703 FILLER_211_109
*17704 FILLER_211_1093
*17705 FILLER_211_1105
*17706 FILLER_211_1117
*17707 FILLER_211_1121
*17708 FILLER_211_113
*17709 FILLER_211_1133
*17710 FILLER_211_1145
*17711 FILLER_211_1149
*17712 FILLER_211_1161
*17713 FILLER_211_1173
*17714 FILLER_211_1177
*17715 FILLER_211_1189
*17716 FILLER_211_1201
*17717 FILLER_211_1205
*17718 FILLER_211_1217
*17719 FILLER_211_1229
*17720 FILLER_211_1233
*17721 FILLER_211_1245
*17722 FILLER_211_125
*17723 FILLER_211_1257
*17724 FILLER_211_1261
*17725 FILLER_211_1273
*17726 FILLER_211_137
*17727 FILLER_211_141
*17728 FILLER_211_15
*17729 FILLER_211_153
*17730 FILLER_211_165
*17731 FILLER_211_169
*17732 FILLER_211_181
*17733 FILLER_211_193
*17734 FILLER_211_197
*17735 FILLER_211_209
*17736 FILLER_211_221
*17737 FILLER_211_225
*17738 FILLER_211_237
*17739 FILLER_211_249
*17740 FILLER_211_253
*17741 FILLER_211_265
*17742 FILLER_211_27
*17743 FILLER_211_277
*17744 FILLER_211_281
*17745 FILLER_211_29
*17746 FILLER_211_293
*17747 FILLER_211_3
*17748 FILLER_211_305
*17749 FILLER_211_309
*17750 FILLER_211_321
*17751 FILLER_211_333
*17752 FILLER_211_337
*17753 FILLER_211_342
*17754 FILLER_211_350
*17755 FILLER_211_356
*17756 FILLER_211_365
*17757 FILLER_211_370
*17758 FILLER_211_377
*17759 FILLER_211_384
*17760 FILLER_211_391
*17761 FILLER_211_393
*17762 FILLER_211_398
*17763 FILLER_211_405
*17764 FILLER_211_41
*17765 FILLER_211_412
*17766 FILLER_211_419
*17767 FILLER_211_421
*17768 FILLER_211_426
*17769 FILLER_211_433
*17770 FILLER_211_440
*17771 FILLER_211_447
*17772 FILLER_211_449
*17773 FILLER_211_454
*17774 FILLER_211_461
*17775 FILLER_211_468
*17776 FILLER_211_475
*17777 FILLER_211_477
*17778 FILLER_211_482
*17779 FILLER_211_489
*17780 FILLER_211_496
*17781 FILLER_211_503
*17782 FILLER_211_505
*17783 FILLER_211_510
*17784 FILLER_211_517
*17785 FILLER_211_525
*17786 FILLER_211_53
*17787 FILLER_211_531
*17788 FILLER_211_533
*17789 FILLER_211_538
*17790 FILLER_211_545
*17791 FILLER_211_552
*17792 FILLER_211_559
*17793 FILLER_211_561
*17794 FILLER_211_566
*17795 FILLER_211_57
*17796 FILLER_211_573
*17797 FILLER_211_580
*17798 FILLER_211_587
*17799 FILLER_211_589
*17800 FILLER_211_597
*17801 FILLER_211_602
*17802 FILLER_211_609
*17803 FILLER_211_615
*17804 FILLER_211_617
*17805 FILLER_211_622
*17806 FILLER_211_629
*17807 FILLER_211_636
*17808 FILLER_211_643
*17809 FILLER_211_645
*17810 FILLER_211_650
*17811 FILLER_211_657
*17812 FILLER_211_664
*17813 FILLER_211_671
*17814 FILLER_211_673
*17815 FILLER_211_678
*17816 FILLER_211_685
*17817 FILLER_211_69
*17818 FILLER_211_692
*17819 FILLER_211_699
*17820 FILLER_211_701
*17821 FILLER_211_706
*17822 FILLER_211_713
*17823 FILLER_211_720
*17824 FILLER_211_727
*17825 FILLER_211_729
*17826 FILLER_211_734
*17827 FILLER_211_741
*17828 FILLER_211_748
*17829 FILLER_211_755
*17830 FILLER_211_757
*17831 FILLER_211_762
*17832 FILLER_211_769
*17833 FILLER_211_776
*17834 FILLER_211_783
*17835 FILLER_211_785
*17836 FILLER_211_790
*17837 FILLER_211_797
*17838 FILLER_211_804
*17839 FILLER_211_81
*17840 FILLER_211_811
*17841 FILLER_211_813
*17842 FILLER_211_818
*17843 FILLER_211_825
*17844 FILLER_211_832
*17845 FILLER_211_839
*17846 FILLER_211_841
*17847 FILLER_211_846
*17848 FILLER_211_85
*17849 FILLER_211_853
*17850 FILLER_211_860
*17851 FILLER_211_869
*17852 FILLER_211_874
*17853 FILLER_211_880
*17854 FILLER_211_885
*17855 FILLER_211_890
*17856 FILLER_211_895
*17857 FILLER_211_897
*17858 FILLER_211_903
*17859 FILLER_211_911
*17860 FILLER_211_916
*17861 FILLER_211_923
*17862 FILLER_211_925
*17863 FILLER_211_931
*17864 FILLER_211_943
*17865 FILLER_211_951
*17866 FILLER_211_953
*17867 FILLER_211_965
*17868 FILLER_211_97
*17869 FILLER_211_977
*17870 FILLER_211_981
*17871 FILLER_211_993
*17872 FILLER_21_1001
*17873 FILLER_21_1007
*17874 FILLER_21_1009
*17875 FILLER_21_1021
*17876 FILLER_21_1033
*17877 FILLER_21_1045
*17878 FILLER_21_105
*17879 FILLER_21_1057
*17880 FILLER_21_1063
*17881 FILLER_21_1065
*17882 FILLER_21_1077
*17883 FILLER_21_1089
*17884 FILLER_21_1101
*17885 FILLER_21_111
*17886 FILLER_21_1113
*17887 FILLER_21_1119
*17888 FILLER_21_1121
*17889 FILLER_21_113
*17890 FILLER_21_1133
*17891 FILLER_21_1145
*17892 FILLER_21_1157
*17893 FILLER_21_1169
*17894 FILLER_21_1175
*17895 FILLER_21_1177
*17896 FILLER_21_1189
*17897 FILLER_21_1201
*17898 FILLER_21_1213
*17899 FILLER_21_1225
*17900 FILLER_21_1231
*17901 FILLER_21_1233
*17902 FILLER_21_1245
*17903 FILLER_21_125
*17904 FILLER_21_1257
*17905 FILLER_21_1269
*17906 FILLER_21_137
*17907 FILLER_21_149
*17908 FILLER_21_15
*17909 FILLER_21_161
*17910 FILLER_21_167
*17911 FILLER_21_169
*17912 FILLER_21_181
*17913 FILLER_21_193
*17914 FILLER_21_205
*17915 FILLER_21_217
*17916 FILLER_21_223
*17917 FILLER_21_225
*17918 FILLER_21_237
*17919 FILLER_21_249
*17920 FILLER_21_261
*17921 FILLER_21_27
*17922 FILLER_21_273
*17923 FILLER_21_279
*17924 FILLER_21_281
*17925 FILLER_21_293
*17926 FILLER_21_3
*17927 FILLER_21_305
*17928 FILLER_21_317
*17929 FILLER_21_329
*17930 FILLER_21_335
*17931 FILLER_21_337
*17932 FILLER_21_349
*17933 FILLER_21_361
*17934 FILLER_21_373
*17935 FILLER_21_385
*17936 FILLER_21_39
*17937 FILLER_21_391
*17938 FILLER_21_393
*17939 FILLER_21_405
*17940 FILLER_21_417
*17941 FILLER_21_429
*17942 FILLER_21_441
*17943 FILLER_21_447
*17944 FILLER_21_449
*17945 FILLER_21_461
*17946 FILLER_21_473
*17947 FILLER_21_485
*17948 FILLER_21_497
*17949 FILLER_21_503
*17950 FILLER_21_505
*17951 FILLER_21_51
*17952 FILLER_21_517
*17953 FILLER_21_529
*17954 FILLER_21_541
*17955 FILLER_21_55
*17956 FILLER_21_553
*17957 FILLER_21_559
*17958 FILLER_21_561
*17959 FILLER_21_57
*17960 FILLER_21_573
*17961 FILLER_21_585
*17962 FILLER_21_597
*17963 FILLER_21_609
*17964 FILLER_21_615
*17965 FILLER_21_617
*17966 FILLER_21_629
*17967 FILLER_21_641
*17968 FILLER_21_653
*17969 FILLER_21_665
*17970 FILLER_21_671
*17971 FILLER_21_673
*17972 FILLER_21_685
*17973 FILLER_21_69
*17974 FILLER_21_697
*17975 FILLER_21_709
*17976 FILLER_21_721
*17977 FILLER_21_727
*17978 FILLER_21_729
*17979 FILLER_21_741
*17980 FILLER_21_753
*17981 FILLER_21_765
*17982 FILLER_21_777
*17983 FILLER_21_783
*17984 FILLER_21_785
*17985 FILLER_21_797
*17986 FILLER_21_809
*17987 FILLER_21_81
*17988 FILLER_21_821
*17989 FILLER_21_833
*17990 FILLER_21_839
*17991 FILLER_21_841
*17992 FILLER_21_853
*17993 FILLER_21_865
*17994 FILLER_21_877
*17995 FILLER_21_889
*17996 FILLER_21_895
*17997 FILLER_21_897
*17998 FILLER_21_909
*17999 FILLER_21_921
*18000 FILLER_21_93
*18001 FILLER_21_933
*18002 FILLER_21_945
*18003 FILLER_21_951
*18004 FILLER_21_953
*18005 FILLER_21_965
*18006 FILLER_21_977
*18007 FILLER_21_989
*18008 FILLER_22_1005
*18009 FILLER_22_1017
*18010 FILLER_22_1029
*18011 FILLER_22_1035
*18012 FILLER_22_1037
*18013 FILLER_22_1049
*18014 FILLER_22_1061
*18015 FILLER_22_1073
*18016 FILLER_22_1085
*18017 FILLER_22_109
*18018 FILLER_22_1091
*18019 FILLER_22_1093
*18020 FILLER_22_1105
*18021 FILLER_22_1117
*18022 FILLER_22_1129
*18023 FILLER_22_1141
*18024 FILLER_22_1147
*18025 FILLER_22_1149
*18026 FILLER_22_1161
*18027 FILLER_22_1173
*18028 FILLER_22_1185
*18029 FILLER_22_1197
*18030 FILLER_22_1203
*18031 FILLER_22_1205
*18032 FILLER_22_121
*18033 FILLER_22_1217
*18034 FILLER_22_1229
*18035 FILLER_22_1241
*18036 FILLER_22_1253
*18037 FILLER_22_1259
*18038 FILLER_22_1261
*18039 FILLER_22_1273
*18040 FILLER_22_133
*18041 FILLER_22_139
*18042 FILLER_22_141
*18043 FILLER_22_15
*18044 FILLER_22_153
*18045 FILLER_22_165
*18046 FILLER_22_177
*18047 FILLER_22_189
*18048 FILLER_22_195
*18049 FILLER_22_197
*18050 FILLER_22_209
*18051 FILLER_22_221
*18052 FILLER_22_233
*18053 FILLER_22_245
*18054 FILLER_22_251
*18055 FILLER_22_253
*18056 FILLER_22_265
*18057 FILLER_22_27
*18058 FILLER_22_277
*18059 FILLER_22_289
*18060 FILLER_22_29
*18061 FILLER_22_3
*18062 FILLER_22_301
*18063 FILLER_22_307
*18064 FILLER_22_309
*18065 FILLER_22_321
*18066 FILLER_22_333
*18067 FILLER_22_345
*18068 FILLER_22_357
*18069 FILLER_22_363
*18070 FILLER_22_365
*18071 FILLER_22_377
*18072 FILLER_22_389
*18073 FILLER_22_401
*18074 FILLER_22_41
*18075 FILLER_22_413
*18076 FILLER_22_419
*18077 FILLER_22_421
*18078 FILLER_22_433
*18079 FILLER_22_445
*18080 FILLER_22_457
*18081 FILLER_22_469
*18082 FILLER_22_475
*18083 FILLER_22_477
*18084 FILLER_22_489
*18085 FILLER_22_501
*18086 FILLER_22_513
*18087 FILLER_22_525
*18088 FILLER_22_53
*18089 FILLER_22_531
*18090 FILLER_22_533
*18091 FILLER_22_545
*18092 FILLER_22_557
*18093 FILLER_22_569
*18094 FILLER_22_581
*18095 FILLER_22_587
*18096 FILLER_22_589
*18097 FILLER_22_601
*18098 FILLER_22_613
*18099 FILLER_22_625
*18100 FILLER_22_637
*18101 FILLER_22_643
*18102 FILLER_22_645
*18103 FILLER_22_65
*18104 FILLER_22_657
*18105 FILLER_22_669
*18106 FILLER_22_681
*18107 FILLER_22_693
*18108 FILLER_22_699
*18109 FILLER_22_701
*18110 FILLER_22_713
*18111 FILLER_22_725
*18112 FILLER_22_737
*18113 FILLER_22_749
*18114 FILLER_22_755
*18115 FILLER_22_757
*18116 FILLER_22_769
*18117 FILLER_22_77
*18118 FILLER_22_781
*18119 FILLER_22_793
*18120 FILLER_22_805
*18121 FILLER_22_811
*18122 FILLER_22_813
*18123 FILLER_22_825
*18124 FILLER_22_83
*18125 FILLER_22_837
*18126 FILLER_22_849
*18127 FILLER_22_85
*18128 FILLER_22_861
*18129 FILLER_22_867
*18130 FILLER_22_869
*18131 FILLER_22_881
*18132 FILLER_22_893
*18133 FILLER_22_905
*18134 FILLER_22_917
*18135 FILLER_22_923
*18136 FILLER_22_925
*18137 FILLER_22_937
*18138 FILLER_22_949
*18139 FILLER_22_961
*18140 FILLER_22_97
*18141 FILLER_22_973
*18142 FILLER_22_979
*18143 FILLER_22_981
*18144 FILLER_22_993
*18145 FILLER_23_1001
*18146 FILLER_23_1007
*18147 FILLER_23_1009
*18148 FILLER_23_1021
*18149 FILLER_23_1033
*18150 FILLER_23_1045
*18151 FILLER_23_105
*18152 FILLER_23_1057
*18153 FILLER_23_1063
*18154 FILLER_23_1065
*18155 FILLER_23_1077
*18156 FILLER_23_1089
*18157 FILLER_23_1101
*18158 FILLER_23_111
*18159 FILLER_23_1113
*18160 FILLER_23_1119
*18161 FILLER_23_1121
*18162 FILLER_23_113
*18163 FILLER_23_1133
*18164 FILLER_23_1145
*18165 FILLER_23_1157
*18166 FILLER_23_1169
*18167 FILLER_23_1175
*18168 FILLER_23_1177
*18169 FILLER_23_1189
*18170 FILLER_23_1201
*18171 FILLER_23_1213
*18172 FILLER_23_1225
*18173 FILLER_23_1231
*18174 FILLER_23_1233
*18175 FILLER_23_1245
*18176 FILLER_23_125
*18177 FILLER_23_1257
*18178 FILLER_23_1269
*18179 FILLER_23_137
*18180 FILLER_23_149
*18181 FILLER_23_15
*18182 FILLER_23_161
*18183 FILLER_23_167
*18184 FILLER_23_169
*18185 FILLER_23_181
*18186 FILLER_23_193
*18187 FILLER_23_205
*18188 FILLER_23_217
*18189 FILLER_23_223
*18190 FILLER_23_225
*18191 FILLER_23_237
*18192 FILLER_23_249
*18193 FILLER_23_261
*18194 FILLER_23_27
*18195 FILLER_23_273
*18196 FILLER_23_279
*18197 FILLER_23_281
*18198 FILLER_23_293
*18199 FILLER_23_3
*18200 FILLER_23_305
*18201 FILLER_23_317
*18202 FILLER_23_329
*18203 FILLER_23_335
*18204 FILLER_23_337
*18205 FILLER_23_349
*18206 FILLER_23_361
*18207 FILLER_23_373
*18208 FILLER_23_385
*18209 FILLER_23_39
*18210 FILLER_23_391
*18211 FILLER_23_393
*18212 FILLER_23_405
*18213 FILLER_23_417
*18214 FILLER_23_429
*18215 FILLER_23_441
*18216 FILLER_23_447
*18217 FILLER_23_449
*18218 FILLER_23_461
*18219 FILLER_23_473
*18220 FILLER_23_485
*18221 FILLER_23_497
*18222 FILLER_23_503
*18223 FILLER_23_505
*18224 FILLER_23_51
*18225 FILLER_23_517
*18226 FILLER_23_529
*18227 FILLER_23_541
*18228 FILLER_23_55
*18229 FILLER_23_553
*18230 FILLER_23_559
*18231 FILLER_23_561
*18232 FILLER_23_57
*18233 FILLER_23_573
*18234 FILLER_23_585
*18235 FILLER_23_597
*18236 FILLER_23_609
*18237 FILLER_23_615
*18238 FILLER_23_617
*18239 FILLER_23_629
*18240 FILLER_23_641
*18241 FILLER_23_653
*18242 FILLER_23_665
*18243 FILLER_23_671
*18244 FILLER_23_673
*18245 FILLER_23_685
*18246 FILLER_23_69
*18247 FILLER_23_697
*18248 FILLER_23_709
*18249 FILLER_23_721
*18250 FILLER_23_727
*18251 FILLER_23_729
*18252 FILLER_23_741
*18253 FILLER_23_753
*18254 FILLER_23_765
*18255 FILLER_23_777
*18256 FILLER_23_783
*18257 FILLER_23_785
*18258 FILLER_23_797
*18259 FILLER_23_809
*18260 FILLER_23_81
*18261 FILLER_23_821
*18262 FILLER_23_833
*18263 FILLER_23_839
*18264 FILLER_23_841
*18265 FILLER_23_853
*18266 FILLER_23_865
*18267 FILLER_23_877
*18268 FILLER_23_889
*18269 FILLER_23_895
*18270 FILLER_23_897
*18271 FILLER_23_909
*18272 FILLER_23_921
*18273 FILLER_23_93
*18274 FILLER_23_933
*18275 FILLER_23_945
*18276 FILLER_23_951
*18277 FILLER_23_953
*18278 FILLER_23_965
*18279 FILLER_23_977
*18280 FILLER_23_989
*18281 FILLER_24_1005
*18282 FILLER_24_1017
*18283 FILLER_24_1029
*18284 FILLER_24_1035
*18285 FILLER_24_1037
*18286 FILLER_24_1049
*18287 FILLER_24_1061
*18288 FILLER_24_1073
*18289 FILLER_24_1085
*18290 FILLER_24_109
*18291 FILLER_24_1091
*18292 FILLER_24_1093
*18293 FILLER_24_1105
*18294 FILLER_24_1117
*18295 FILLER_24_1129
*18296 FILLER_24_1141
*18297 FILLER_24_1147
*18298 FILLER_24_1149
*18299 FILLER_24_1161
*18300 FILLER_24_1173
*18301 FILLER_24_1185
*18302 FILLER_24_1197
*18303 FILLER_24_1203
*18304 FILLER_24_1205
*18305 FILLER_24_121
*18306 FILLER_24_1217
*18307 FILLER_24_1229
*18308 FILLER_24_1241
*18309 FILLER_24_1253
*18310 FILLER_24_1259
*18311 FILLER_24_1261
*18312 FILLER_24_1273
*18313 FILLER_24_133
*18314 FILLER_24_139
*18315 FILLER_24_141
*18316 FILLER_24_15
*18317 FILLER_24_153
*18318 FILLER_24_165
*18319 FILLER_24_177
*18320 FILLER_24_189
*18321 FILLER_24_195
*18322 FILLER_24_197
*18323 FILLER_24_209
*18324 FILLER_24_221
*18325 FILLER_24_233
*18326 FILLER_24_245
*18327 FILLER_24_251
*18328 FILLER_24_253
*18329 FILLER_24_265
*18330 FILLER_24_27
*18331 FILLER_24_277
*18332 FILLER_24_289
*18333 FILLER_24_29
*18334 FILLER_24_3
*18335 FILLER_24_301
*18336 FILLER_24_307
*18337 FILLER_24_309
*18338 FILLER_24_321
*18339 FILLER_24_333
*18340 FILLER_24_345
*18341 FILLER_24_357
*18342 FILLER_24_363
*18343 FILLER_24_365
*18344 FILLER_24_377
*18345 FILLER_24_389
*18346 FILLER_24_401
*18347 FILLER_24_41
*18348 FILLER_24_413
*18349 FILLER_24_419
*18350 FILLER_24_421
*18351 FILLER_24_433
*18352 FILLER_24_445
*18353 FILLER_24_457
*18354 FILLER_24_469
*18355 FILLER_24_475
*18356 FILLER_24_477
*18357 FILLER_24_489
*18358 FILLER_24_501
*18359 FILLER_24_513
*18360 FILLER_24_525
*18361 FILLER_24_53
*18362 FILLER_24_531
*18363 FILLER_24_533
*18364 FILLER_24_545
*18365 FILLER_24_557
*18366 FILLER_24_569
*18367 FILLER_24_581
*18368 FILLER_24_587
*18369 FILLER_24_589
*18370 FILLER_24_601
*18371 FILLER_24_613
*18372 FILLER_24_625
*18373 FILLER_24_637
*18374 FILLER_24_643
*18375 FILLER_24_645
*18376 FILLER_24_65
*18377 FILLER_24_657
*18378 FILLER_24_669
*18379 FILLER_24_681
*18380 FILLER_24_693
*18381 FILLER_24_699
*18382 FILLER_24_701
*18383 FILLER_24_713
*18384 FILLER_24_725
*18385 FILLER_24_737
*18386 FILLER_24_749
*18387 FILLER_24_755
*18388 FILLER_24_757
*18389 FILLER_24_769
*18390 FILLER_24_77
*18391 FILLER_24_781
*18392 FILLER_24_793
*18393 FILLER_24_805
*18394 FILLER_24_811
*18395 FILLER_24_813
*18396 FILLER_24_825
*18397 FILLER_24_83
*18398 FILLER_24_837
*18399 FILLER_24_849
*18400 FILLER_24_85
*18401 FILLER_24_861
*18402 FILLER_24_867
*18403 FILLER_24_869
*18404 FILLER_24_881
*18405 FILLER_24_893
*18406 FILLER_24_905
*18407 FILLER_24_917
*18408 FILLER_24_923
*18409 FILLER_24_925
*18410 FILLER_24_937
*18411 FILLER_24_949
*18412 FILLER_24_961
*18413 FILLER_24_97
*18414 FILLER_24_973
*18415 FILLER_24_979
*18416 FILLER_24_981
*18417 FILLER_24_993
*18418 FILLER_25_1001
*18419 FILLER_25_1007
*18420 FILLER_25_1009
*18421 FILLER_25_1021
*18422 FILLER_25_1033
*18423 FILLER_25_1045
*18424 FILLER_25_105
*18425 FILLER_25_1057
*18426 FILLER_25_1063
*18427 FILLER_25_1065
*18428 FILLER_25_1077
*18429 FILLER_25_1089
*18430 FILLER_25_1101
*18431 FILLER_25_111
*18432 FILLER_25_1113
*18433 FILLER_25_1119
*18434 FILLER_25_1121
*18435 FILLER_25_113
*18436 FILLER_25_1133
*18437 FILLER_25_1145
*18438 FILLER_25_1157
*18439 FILLER_25_1169
*18440 FILLER_25_1175
*18441 FILLER_25_1177
*18442 FILLER_25_1189
*18443 FILLER_25_1201
*18444 FILLER_25_1213
*18445 FILLER_25_1225
*18446 FILLER_25_1231
*18447 FILLER_25_1233
*18448 FILLER_25_1245
*18449 FILLER_25_125
*18450 FILLER_25_1257
*18451 FILLER_25_1269
*18452 FILLER_25_137
*18453 FILLER_25_149
*18454 FILLER_25_15
*18455 FILLER_25_161
*18456 FILLER_25_167
*18457 FILLER_25_169
*18458 FILLER_25_181
*18459 FILLER_25_193
*18460 FILLER_25_205
*18461 FILLER_25_217
*18462 FILLER_25_223
*18463 FILLER_25_225
*18464 FILLER_25_237
*18465 FILLER_25_249
*18466 FILLER_25_261
*18467 FILLER_25_27
*18468 FILLER_25_273
*18469 FILLER_25_279
*18470 FILLER_25_281
*18471 FILLER_25_293
*18472 FILLER_25_3
*18473 FILLER_25_305
*18474 FILLER_25_317
*18475 FILLER_25_329
*18476 FILLER_25_335
*18477 FILLER_25_337
*18478 FILLER_25_349
*18479 FILLER_25_361
*18480 FILLER_25_373
*18481 FILLER_25_385
*18482 FILLER_25_39
*18483 FILLER_25_391
*18484 FILLER_25_393
*18485 FILLER_25_405
*18486 FILLER_25_417
*18487 FILLER_25_429
*18488 FILLER_25_441
*18489 FILLER_25_447
*18490 FILLER_25_449
*18491 FILLER_25_461
*18492 FILLER_25_473
*18493 FILLER_25_485
*18494 FILLER_25_497
*18495 FILLER_25_503
*18496 FILLER_25_505
*18497 FILLER_25_51
*18498 FILLER_25_517
*18499 FILLER_25_529
*18500 FILLER_25_541
*18501 FILLER_25_55
*18502 FILLER_25_553
*18503 FILLER_25_559
*18504 FILLER_25_561
*18505 FILLER_25_57
*18506 FILLER_25_573
*18507 FILLER_25_585
*18508 FILLER_25_597
*18509 FILLER_25_609
*18510 FILLER_25_615
*18511 FILLER_25_617
*18512 FILLER_25_629
*18513 FILLER_25_641
*18514 FILLER_25_653
*18515 FILLER_25_665
*18516 FILLER_25_671
*18517 FILLER_25_673
*18518 FILLER_25_685
*18519 FILLER_25_69
*18520 FILLER_25_697
*18521 FILLER_25_709
*18522 FILLER_25_721
*18523 FILLER_25_727
*18524 FILLER_25_729
*18525 FILLER_25_741
*18526 FILLER_25_753
*18527 FILLER_25_765
*18528 FILLER_25_777
*18529 FILLER_25_783
*18530 FILLER_25_785
*18531 FILLER_25_797
*18532 FILLER_25_809
*18533 FILLER_25_81
*18534 FILLER_25_821
*18535 FILLER_25_833
*18536 FILLER_25_839
*18537 FILLER_25_841
*18538 FILLER_25_853
*18539 FILLER_25_865
*18540 FILLER_25_877
*18541 FILLER_25_889
*18542 FILLER_25_895
*18543 FILLER_25_897
*18544 FILLER_25_909
*18545 FILLER_25_921
*18546 FILLER_25_93
*18547 FILLER_25_933
*18548 FILLER_25_945
*18549 FILLER_25_951
*18550 FILLER_25_953
*18551 FILLER_25_965
*18552 FILLER_25_977
*18553 FILLER_25_989
*18554 FILLER_26_1005
*18555 FILLER_26_1017
*18556 FILLER_26_1029
*18557 FILLER_26_1035
*18558 FILLER_26_1037
*18559 FILLER_26_1049
*18560 FILLER_26_1061
*18561 FILLER_26_1073
*18562 FILLER_26_1085
*18563 FILLER_26_109
*18564 FILLER_26_1091
*18565 FILLER_26_1093
*18566 FILLER_26_1105
*18567 FILLER_26_1117
*18568 FILLER_26_1129
*18569 FILLER_26_1141
*18570 FILLER_26_1147
*18571 FILLER_26_1149
*18572 FILLER_26_1161
*18573 FILLER_26_1173
*18574 FILLER_26_1185
*18575 FILLER_26_1197
*18576 FILLER_26_1203
*18577 FILLER_26_1205
*18578 FILLER_26_121
*18579 FILLER_26_1217
*18580 FILLER_26_1229
*18581 FILLER_26_1241
*18582 FILLER_26_1253
*18583 FILLER_26_1259
*18584 FILLER_26_1261
*18585 FILLER_26_1273
*18586 FILLER_26_133
*18587 FILLER_26_139
*18588 FILLER_26_141
*18589 FILLER_26_15
*18590 FILLER_26_153
*18591 FILLER_26_165
*18592 FILLER_26_177
*18593 FILLER_26_189
*18594 FILLER_26_195
*18595 FILLER_26_197
*18596 FILLER_26_209
*18597 FILLER_26_221
*18598 FILLER_26_233
*18599 FILLER_26_245
*18600 FILLER_26_251
*18601 FILLER_26_253
*18602 FILLER_26_265
*18603 FILLER_26_27
*18604 FILLER_26_277
*18605 FILLER_26_289
*18606 FILLER_26_29
*18607 FILLER_26_3
*18608 FILLER_26_301
*18609 FILLER_26_307
*18610 FILLER_26_309
*18611 FILLER_26_321
*18612 FILLER_26_333
*18613 FILLER_26_345
*18614 FILLER_26_357
*18615 FILLER_26_363
*18616 FILLER_26_365
*18617 FILLER_26_377
*18618 FILLER_26_389
*18619 FILLER_26_401
*18620 FILLER_26_41
*18621 FILLER_26_413
*18622 FILLER_26_419
*18623 FILLER_26_421
*18624 FILLER_26_433
*18625 FILLER_26_445
*18626 FILLER_26_457
*18627 FILLER_26_469
*18628 FILLER_26_475
*18629 FILLER_26_477
*18630 FILLER_26_489
*18631 FILLER_26_501
*18632 FILLER_26_513
*18633 FILLER_26_525
*18634 FILLER_26_53
*18635 FILLER_26_531
*18636 FILLER_26_533
*18637 FILLER_26_545
*18638 FILLER_26_557
*18639 FILLER_26_569
*18640 FILLER_26_581
*18641 FILLER_26_587
*18642 FILLER_26_589
*18643 FILLER_26_601
*18644 FILLER_26_613
*18645 FILLER_26_625
*18646 FILLER_26_637
*18647 FILLER_26_643
*18648 FILLER_26_645
*18649 FILLER_26_65
*18650 FILLER_26_657
*18651 FILLER_26_669
*18652 FILLER_26_681
*18653 FILLER_26_693
*18654 FILLER_26_699
*18655 FILLER_26_701
*18656 FILLER_26_713
*18657 FILLER_26_725
*18658 FILLER_26_737
*18659 FILLER_26_749
*18660 FILLER_26_755
*18661 FILLER_26_757
*18662 FILLER_26_769
*18663 FILLER_26_77
*18664 FILLER_26_781
*18665 FILLER_26_793
*18666 FILLER_26_805
*18667 FILLER_26_811
*18668 FILLER_26_813
*18669 FILLER_26_825
*18670 FILLER_26_83
*18671 FILLER_26_837
*18672 FILLER_26_849
*18673 FILLER_26_85
*18674 FILLER_26_861
*18675 FILLER_26_867
*18676 FILLER_26_869
*18677 FILLER_26_881
*18678 FILLER_26_893
*18679 FILLER_26_905
*18680 FILLER_26_917
*18681 FILLER_26_923
*18682 FILLER_26_925
*18683 FILLER_26_937
*18684 FILLER_26_949
*18685 FILLER_26_961
*18686 FILLER_26_97
*18687 FILLER_26_973
*18688 FILLER_26_979
*18689 FILLER_26_981
*18690 FILLER_26_993
*18691 FILLER_27_1001
*18692 FILLER_27_1007
*18693 FILLER_27_1009
*18694 FILLER_27_1021
*18695 FILLER_27_1033
*18696 FILLER_27_1045
*18697 FILLER_27_105
*18698 FILLER_27_1057
*18699 FILLER_27_1063
*18700 FILLER_27_1065
*18701 FILLER_27_1077
*18702 FILLER_27_1089
*18703 FILLER_27_1101
*18704 FILLER_27_111
*18705 FILLER_27_1113
*18706 FILLER_27_1119
*18707 FILLER_27_1121
*18708 FILLER_27_113
*18709 FILLER_27_1133
*18710 FILLER_27_1145
*18711 FILLER_27_1157
*18712 FILLER_27_1169
*18713 FILLER_27_1175
*18714 FILLER_27_1177
*18715 FILLER_27_1189
*18716 FILLER_27_1201
*18717 FILLER_27_1213
*18718 FILLER_27_1225
*18719 FILLER_27_1231
*18720 FILLER_27_1233
*18721 FILLER_27_1245
*18722 FILLER_27_125
*18723 FILLER_27_1257
*18724 FILLER_27_1269
*18725 FILLER_27_137
*18726 FILLER_27_149
*18727 FILLER_27_15
*18728 FILLER_27_161
*18729 FILLER_27_167
*18730 FILLER_27_169
*18731 FILLER_27_181
*18732 FILLER_27_193
*18733 FILLER_27_205
*18734 FILLER_27_217
*18735 FILLER_27_223
*18736 FILLER_27_225
*18737 FILLER_27_237
*18738 FILLER_27_249
*18739 FILLER_27_261
*18740 FILLER_27_27
*18741 FILLER_27_273
*18742 FILLER_27_279
*18743 FILLER_27_281
*18744 FILLER_27_293
*18745 FILLER_27_3
*18746 FILLER_27_305
*18747 FILLER_27_317
*18748 FILLER_27_329
*18749 FILLER_27_335
*18750 FILLER_27_337
*18751 FILLER_27_349
*18752 FILLER_27_361
*18753 FILLER_27_373
*18754 FILLER_27_385
*18755 FILLER_27_39
*18756 FILLER_27_391
*18757 FILLER_27_393
*18758 FILLER_27_405
*18759 FILLER_27_417
*18760 FILLER_27_429
*18761 FILLER_27_441
*18762 FILLER_27_447
*18763 FILLER_27_449
*18764 FILLER_27_461
*18765 FILLER_27_473
*18766 FILLER_27_485
*18767 FILLER_27_497
*18768 FILLER_27_503
*18769 FILLER_27_505
*18770 FILLER_27_51
*18771 FILLER_27_517
*18772 FILLER_27_529
*18773 FILLER_27_541
*18774 FILLER_27_55
*18775 FILLER_27_553
*18776 FILLER_27_559
*18777 FILLER_27_561
*18778 FILLER_27_57
*18779 FILLER_27_573
*18780 FILLER_27_585
*18781 FILLER_27_597
*18782 FILLER_27_609
*18783 FILLER_27_615
*18784 FILLER_27_617
*18785 FILLER_27_629
*18786 FILLER_27_641
*18787 FILLER_27_653
*18788 FILLER_27_665
*18789 FILLER_27_671
*18790 FILLER_27_673
*18791 FILLER_27_685
*18792 FILLER_27_69
*18793 FILLER_27_697
*18794 FILLER_27_709
*18795 FILLER_27_721
*18796 FILLER_27_727
*18797 FILLER_27_729
*18798 FILLER_27_741
*18799 FILLER_27_753
*18800 FILLER_27_765
*18801 FILLER_27_777
*18802 FILLER_27_783
*18803 FILLER_27_785
*18804 FILLER_27_797
*18805 FILLER_27_809
*18806 FILLER_27_81
*18807 FILLER_27_821
*18808 FILLER_27_833
*18809 FILLER_27_839
*18810 FILLER_27_841
*18811 FILLER_27_853
*18812 FILLER_27_865
*18813 FILLER_27_877
*18814 FILLER_27_889
*18815 FILLER_27_895
*18816 FILLER_27_897
*18817 FILLER_27_909
*18818 FILLER_27_921
*18819 FILLER_27_93
*18820 FILLER_27_933
*18821 FILLER_27_945
*18822 FILLER_27_951
*18823 FILLER_27_953
*18824 FILLER_27_965
*18825 FILLER_27_977
*18826 FILLER_27_989
*18827 FILLER_28_1005
*18828 FILLER_28_1017
*18829 FILLER_28_1029
*18830 FILLER_28_1035
*18831 FILLER_28_1037
*18832 FILLER_28_1049
*18833 FILLER_28_1061
*18834 FILLER_28_1073
*18835 FILLER_28_1085
*18836 FILLER_28_109
*18837 FILLER_28_1091
*18838 FILLER_28_1093
*18839 FILLER_28_1105
*18840 FILLER_28_1117
*18841 FILLER_28_1129
*18842 FILLER_28_1141
*18843 FILLER_28_1147
*18844 FILLER_28_1149
*18845 FILLER_28_1161
*18846 FILLER_28_1173
*18847 FILLER_28_1185
*18848 FILLER_28_1197
*18849 FILLER_28_1203
*18850 FILLER_28_1205
*18851 FILLER_28_121
*18852 FILLER_28_1217
*18853 FILLER_28_1229
*18854 FILLER_28_1241
*18855 FILLER_28_1253
*18856 FILLER_28_1259
*18857 FILLER_28_1261
*18858 FILLER_28_1273
*18859 FILLER_28_133
*18860 FILLER_28_139
*18861 FILLER_28_141
*18862 FILLER_28_15
*18863 FILLER_28_153
*18864 FILLER_28_165
*18865 FILLER_28_177
*18866 FILLER_28_189
*18867 FILLER_28_195
*18868 FILLER_28_197
*18869 FILLER_28_209
*18870 FILLER_28_221
*18871 FILLER_28_233
*18872 FILLER_28_245
*18873 FILLER_28_251
*18874 FILLER_28_253
*18875 FILLER_28_265
*18876 FILLER_28_27
*18877 FILLER_28_277
*18878 FILLER_28_289
*18879 FILLER_28_29
*18880 FILLER_28_3
*18881 FILLER_28_301
*18882 FILLER_28_307
*18883 FILLER_28_309
*18884 FILLER_28_321
*18885 FILLER_28_333
*18886 FILLER_28_345
*18887 FILLER_28_357
*18888 FILLER_28_363
*18889 FILLER_28_365
*18890 FILLER_28_377
*18891 FILLER_28_389
*18892 FILLER_28_401
*18893 FILLER_28_41
*18894 FILLER_28_413
*18895 FILLER_28_419
*18896 FILLER_28_421
*18897 FILLER_28_433
*18898 FILLER_28_445
*18899 FILLER_28_457
*18900 FILLER_28_469
*18901 FILLER_28_475
*18902 FILLER_28_477
*18903 FILLER_28_489
*18904 FILLER_28_501
*18905 FILLER_28_513
*18906 FILLER_28_525
*18907 FILLER_28_53
*18908 FILLER_28_531
*18909 FILLER_28_533
*18910 FILLER_28_545
*18911 FILLER_28_557
*18912 FILLER_28_569
*18913 FILLER_28_581
*18914 FILLER_28_587
*18915 FILLER_28_589
*18916 FILLER_28_601
*18917 FILLER_28_613
*18918 FILLER_28_625
*18919 FILLER_28_637
*18920 FILLER_28_643
*18921 FILLER_28_645
*18922 FILLER_28_65
*18923 FILLER_28_657
*18924 FILLER_28_669
*18925 FILLER_28_681
*18926 FILLER_28_693
*18927 FILLER_28_699
*18928 FILLER_28_701
*18929 FILLER_28_713
*18930 FILLER_28_725
*18931 FILLER_28_737
*18932 FILLER_28_749
*18933 FILLER_28_755
*18934 FILLER_28_757
*18935 FILLER_28_769
*18936 FILLER_28_77
*18937 FILLER_28_781
*18938 FILLER_28_793
*18939 FILLER_28_805
*18940 FILLER_28_811
*18941 FILLER_28_813
*18942 FILLER_28_825
*18943 FILLER_28_83
*18944 FILLER_28_837
*18945 FILLER_28_849
*18946 FILLER_28_85
*18947 FILLER_28_861
*18948 FILLER_28_867
*18949 FILLER_28_869
*18950 FILLER_28_881
*18951 FILLER_28_893
*18952 FILLER_28_905
*18953 FILLER_28_917
*18954 FILLER_28_923
*18955 FILLER_28_925
*18956 FILLER_28_937
*18957 FILLER_28_949
*18958 FILLER_28_961
*18959 FILLER_28_97
*18960 FILLER_28_973
*18961 FILLER_28_979
*18962 FILLER_28_981
*18963 FILLER_28_993
*18964 FILLER_29_1001
*18965 FILLER_29_1007
*18966 FILLER_29_1009
*18967 FILLER_29_1021
*18968 FILLER_29_1033
*18969 FILLER_29_1045
*18970 FILLER_29_105
*18971 FILLER_29_1057
*18972 FILLER_29_1063
*18973 FILLER_29_1065
*18974 FILLER_29_1077
*18975 FILLER_29_1089
*18976 FILLER_29_1101
*18977 FILLER_29_111
*18978 FILLER_29_1113
*18979 FILLER_29_1119
*18980 FILLER_29_1121
*18981 FILLER_29_113
*18982 FILLER_29_1133
*18983 FILLER_29_1145
*18984 FILLER_29_1157
*18985 FILLER_29_1169
*18986 FILLER_29_1175
*18987 FILLER_29_1177
*18988 FILLER_29_1189
*18989 FILLER_29_1201
*18990 FILLER_29_1213
*18991 FILLER_29_1225
*18992 FILLER_29_1231
*18993 FILLER_29_1233
*18994 FILLER_29_1245
*18995 FILLER_29_125
*18996 FILLER_29_1257
*18997 FILLER_29_1269
*18998 FILLER_29_137
*18999 FILLER_29_149
*19000 FILLER_29_15
*19001 FILLER_29_161
*19002 FILLER_29_167
*19003 FILLER_29_169
*19004 FILLER_29_181
*19005 FILLER_29_193
*19006 FILLER_29_205
*19007 FILLER_29_217
*19008 FILLER_29_223
*19009 FILLER_29_225
*19010 FILLER_29_237
*19011 FILLER_29_249
*19012 FILLER_29_261
*19013 FILLER_29_27
*19014 FILLER_29_273
*19015 FILLER_29_279
*19016 FILLER_29_281
*19017 FILLER_29_293
*19018 FILLER_29_3
*19019 FILLER_29_305
*19020 FILLER_29_317
*19021 FILLER_29_329
*19022 FILLER_29_335
*19023 FILLER_29_337
*19024 FILLER_29_349
*19025 FILLER_29_361
*19026 FILLER_29_373
*19027 FILLER_29_385
*19028 FILLER_29_39
*19029 FILLER_29_391
*19030 FILLER_29_393
*19031 FILLER_29_405
*19032 FILLER_29_417
*19033 FILLER_29_429
*19034 FILLER_29_441
*19035 FILLER_29_447
*19036 FILLER_29_449
*19037 FILLER_29_461
*19038 FILLER_29_473
*19039 FILLER_29_485
*19040 FILLER_29_497
*19041 FILLER_29_503
*19042 FILLER_29_505
*19043 FILLER_29_51
*19044 FILLER_29_517
*19045 FILLER_29_529
*19046 FILLER_29_541
*19047 FILLER_29_55
*19048 FILLER_29_553
*19049 FILLER_29_559
*19050 FILLER_29_561
*19051 FILLER_29_57
*19052 FILLER_29_573
*19053 FILLER_29_585
*19054 FILLER_29_597
*19055 FILLER_29_609
*19056 FILLER_29_615
*19057 FILLER_29_617
*19058 FILLER_29_629
*19059 FILLER_29_641
*19060 FILLER_29_653
*19061 FILLER_29_665
*19062 FILLER_29_671
*19063 FILLER_29_673
*19064 FILLER_29_685
*19065 FILLER_29_69
*19066 FILLER_29_697
*19067 FILLER_29_709
*19068 FILLER_29_721
*19069 FILLER_29_727
*19070 FILLER_29_729
*19071 FILLER_29_741
*19072 FILLER_29_753
*19073 FILLER_29_765
*19074 FILLER_29_777
*19075 FILLER_29_783
*19076 FILLER_29_785
*19077 FILLER_29_797
*19078 FILLER_29_809
*19079 FILLER_29_81
*19080 FILLER_29_821
*19081 FILLER_29_833
*19082 FILLER_29_839
*19083 FILLER_29_841
*19084 FILLER_29_853
*19085 FILLER_29_865
*19086 FILLER_29_877
*19087 FILLER_29_889
*19088 FILLER_29_895
*19089 FILLER_29_897
*19090 FILLER_29_909
*19091 FILLER_29_921
*19092 FILLER_29_93
*19093 FILLER_29_933
*19094 FILLER_29_945
*19095 FILLER_29_951
*19096 FILLER_29_953
*19097 FILLER_29_965
*19098 FILLER_29_977
*19099 FILLER_29_989
*19100 FILLER_2_1005
*19101 FILLER_2_1017
*19102 FILLER_2_1029
*19103 FILLER_2_1035
*19104 FILLER_2_1037
*19105 FILLER_2_1049
*19106 FILLER_2_1061
*19107 FILLER_2_1073
*19108 FILLER_2_1085
*19109 FILLER_2_109
*19110 FILLER_2_1091
*19111 FILLER_2_1093
*19112 FILLER_2_1105
*19113 FILLER_2_1117
*19114 FILLER_2_1129
*19115 FILLER_2_1141
*19116 FILLER_2_1147
*19117 FILLER_2_1149
*19118 FILLER_2_1161
*19119 FILLER_2_1173
*19120 FILLER_2_1185
*19121 FILLER_2_1197
*19122 FILLER_2_1203
*19123 FILLER_2_1205
*19124 FILLER_2_121
*19125 FILLER_2_1217
*19126 FILLER_2_1229
*19127 FILLER_2_1241
*19128 FILLER_2_1253
*19129 FILLER_2_1259
*19130 FILLER_2_1261
*19131 FILLER_2_1273
*19132 FILLER_2_133
*19133 FILLER_2_139
*19134 FILLER_2_141
*19135 FILLER_2_15
*19136 FILLER_2_153
*19137 FILLER_2_165
*19138 FILLER_2_177
*19139 FILLER_2_189
*19140 FILLER_2_195
*19141 FILLER_2_197
*19142 FILLER_2_209
*19143 FILLER_2_221
*19144 FILLER_2_233
*19145 FILLER_2_245
*19146 FILLER_2_251
*19147 FILLER_2_253
*19148 FILLER_2_265
*19149 FILLER_2_27
*19150 FILLER_2_277
*19151 FILLER_2_289
*19152 FILLER_2_29
*19153 FILLER_2_3
*19154 FILLER_2_301
*19155 FILLER_2_307
*19156 FILLER_2_309
*19157 FILLER_2_321
*19158 FILLER_2_333
*19159 FILLER_2_345
*19160 FILLER_2_357
*19161 FILLER_2_363
*19162 FILLER_2_365
*19163 FILLER_2_377
*19164 FILLER_2_389
*19165 FILLER_2_401
*19166 FILLER_2_41
*19167 FILLER_2_413
*19168 FILLER_2_419
*19169 FILLER_2_421
*19170 FILLER_2_433
*19171 FILLER_2_445
*19172 FILLER_2_457
*19173 FILLER_2_469
*19174 FILLER_2_475
*19175 FILLER_2_477
*19176 FILLER_2_489
*19177 FILLER_2_501
*19178 FILLER_2_513
*19179 FILLER_2_525
*19180 FILLER_2_53
*19181 FILLER_2_531
*19182 FILLER_2_533
*19183 FILLER_2_545
*19184 FILLER_2_557
*19185 FILLER_2_569
*19186 FILLER_2_581
*19187 FILLER_2_587
*19188 FILLER_2_589
*19189 FILLER_2_601
*19190 FILLER_2_605
*19191 FILLER_2_609
*19192 FILLER_2_613
*19193 FILLER_2_617
*19194 FILLER_2_629
*19195 FILLER_2_641
*19196 FILLER_2_645
*19197 FILLER_2_65
*19198 FILLER_2_657
*19199 FILLER_2_669
*19200 FILLER_2_681
*19201 FILLER_2_693
*19202 FILLER_2_699
*19203 FILLER_2_701
*19204 FILLER_2_707
*19205 FILLER_2_711
*19206 FILLER_2_723
*19207 FILLER_2_735
*19208 FILLER_2_747
*19209 FILLER_2_755
*19210 FILLER_2_757
*19211 FILLER_2_769
*19212 FILLER_2_77
*19213 FILLER_2_781
*19214 FILLER_2_793
*19215 FILLER_2_805
*19216 FILLER_2_811
*19217 FILLER_2_813
*19218 FILLER_2_825
*19219 FILLER_2_83
*19220 FILLER_2_837
*19221 FILLER_2_849
*19222 FILLER_2_85
*19223 FILLER_2_861
*19224 FILLER_2_867
*19225 FILLER_2_869
*19226 FILLER_2_881
*19227 FILLER_2_893
*19228 FILLER_2_905
*19229 FILLER_2_917
*19230 FILLER_2_923
*19231 FILLER_2_925
*19232 FILLER_2_937
*19233 FILLER_2_949
*19234 FILLER_2_961
*19235 FILLER_2_97
*19236 FILLER_2_973
*19237 FILLER_2_979
*19238 FILLER_2_981
*19239 FILLER_2_993
*19240 FILLER_30_1005
*19241 FILLER_30_1017
*19242 FILLER_30_1029
*19243 FILLER_30_1035
*19244 FILLER_30_1037
*19245 FILLER_30_1049
*19246 FILLER_30_1061
*19247 FILLER_30_1073
*19248 FILLER_30_1085
*19249 FILLER_30_109
*19250 FILLER_30_1091
*19251 FILLER_30_1093
*19252 FILLER_30_1105
*19253 FILLER_30_1117
*19254 FILLER_30_1129
*19255 FILLER_30_1141
*19256 FILLER_30_1147
*19257 FILLER_30_1149
*19258 FILLER_30_1161
*19259 FILLER_30_1173
*19260 FILLER_30_1185
*19261 FILLER_30_1197
*19262 FILLER_30_1203
*19263 FILLER_30_1205
*19264 FILLER_30_121
*19265 FILLER_30_1217
*19266 FILLER_30_1229
*19267 FILLER_30_1241
*19268 FILLER_30_1253
*19269 FILLER_30_1259
*19270 FILLER_30_1261
*19271 FILLER_30_1273
*19272 FILLER_30_133
*19273 FILLER_30_139
*19274 FILLER_30_141
*19275 FILLER_30_15
*19276 FILLER_30_153
*19277 FILLER_30_165
*19278 FILLER_30_177
*19279 FILLER_30_189
*19280 FILLER_30_195
*19281 FILLER_30_197
*19282 FILLER_30_209
*19283 FILLER_30_221
*19284 FILLER_30_233
*19285 FILLER_30_245
*19286 FILLER_30_251
*19287 FILLER_30_253
*19288 FILLER_30_265
*19289 FILLER_30_27
*19290 FILLER_30_277
*19291 FILLER_30_289
*19292 FILLER_30_29
*19293 FILLER_30_3
*19294 FILLER_30_301
*19295 FILLER_30_307
*19296 FILLER_30_309
*19297 FILLER_30_321
*19298 FILLER_30_333
*19299 FILLER_30_345
*19300 FILLER_30_357
*19301 FILLER_30_363
*19302 FILLER_30_365
*19303 FILLER_30_377
*19304 FILLER_30_389
*19305 FILLER_30_401
*19306 FILLER_30_41
*19307 FILLER_30_413
*19308 FILLER_30_419
*19309 FILLER_30_421
*19310 FILLER_30_433
*19311 FILLER_30_445
*19312 FILLER_30_457
*19313 FILLER_30_469
*19314 FILLER_30_475
*19315 FILLER_30_477
*19316 FILLER_30_489
*19317 FILLER_30_501
*19318 FILLER_30_513
*19319 FILLER_30_525
*19320 FILLER_30_53
*19321 FILLER_30_531
*19322 FILLER_30_533
*19323 FILLER_30_545
*19324 FILLER_30_557
*19325 FILLER_30_569
*19326 FILLER_30_581
*19327 FILLER_30_587
*19328 FILLER_30_589
*19329 FILLER_30_601
*19330 FILLER_30_613
*19331 FILLER_30_625
*19332 FILLER_30_637
*19333 FILLER_30_643
*19334 FILLER_30_645
*19335 FILLER_30_65
*19336 FILLER_30_657
*19337 FILLER_30_669
*19338 FILLER_30_681
*19339 FILLER_30_693
*19340 FILLER_30_699
*19341 FILLER_30_701
*19342 FILLER_30_713
*19343 FILLER_30_725
*19344 FILLER_30_737
*19345 FILLER_30_749
*19346 FILLER_30_755
*19347 FILLER_30_757
*19348 FILLER_30_769
*19349 FILLER_30_77
*19350 FILLER_30_781
*19351 FILLER_30_793
*19352 FILLER_30_805
*19353 FILLER_30_811
*19354 FILLER_30_813
*19355 FILLER_30_825
*19356 FILLER_30_83
*19357 FILLER_30_837
*19358 FILLER_30_849
*19359 FILLER_30_85
*19360 FILLER_30_861
*19361 FILLER_30_867
*19362 FILLER_30_869
*19363 FILLER_30_881
*19364 FILLER_30_893
*19365 FILLER_30_905
*19366 FILLER_30_917
*19367 FILLER_30_923
*19368 FILLER_30_925
*19369 FILLER_30_937
*19370 FILLER_30_949
*19371 FILLER_30_961
*19372 FILLER_30_97
*19373 FILLER_30_973
*19374 FILLER_30_979
*19375 FILLER_30_981
*19376 FILLER_30_993
*19377 FILLER_31_1001
*19378 FILLER_31_1007
*19379 FILLER_31_1009
*19380 FILLER_31_1021
*19381 FILLER_31_1033
*19382 FILLER_31_1045
*19383 FILLER_31_105
*19384 FILLER_31_1057
*19385 FILLER_31_1063
*19386 FILLER_31_1065
*19387 FILLER_31_1077
*19388 FILLER_31_1089
*19389 FILLER_31_1101
*19390 FILLER_31_111
*19391 FILLER_31_1113
*19392 FILLER_31_1119
*19393 FILLER_31_1121
*19394 FILLER_31_113
*19395 FILLER_31_1133
*19396 FILLER_31_1145
*19397 FILLER_31_1157
*19398 FILLER_31_1169
*19399 FILLER_31_1175
*19400 FILLER_31_1177
*19401 FILLER_31_1189
*19402 FILLER_31_1201
*19403 FILLER_31_1213
*19404 FILLER_31_1225
*19405 FILLER_31_1231
*19406 FILLER_31_1233
*19407 FILLER_31_1245
*19408 FILLER_31_125
*19409 FILLER_31_1257
*19410 FILLER_31_1269
*19411 FILLER_31_137
*19412 FILLER_31_149
*19413 FILLER_31_15
*19414 FILLER_31_161
*19415 FILLER_31_167
*19416 FILLER_31_169
*19417 FILLER_31_181
*19418 FILLER_31_193
*19419 FILLER_31_205
*19420 FILLER_31_217
*19421 FILLER_31_223
*19422 FILLER_31_225
*19423 FILLER_31_237
*19424 FILLER_31_249
*19425 FILLER_31_261
*19426 FILLER_31_27
*19427 FILLER_31_273
*19428 FILLER_31_279
*19429 FILLER_31_281
*19430 FILLER_31_293
*19431 FILLER_31_3
*19432 FILLER_31_305
*19433 FILLER_31_317
*19434 FILLER_31_329
*19435 FILLER_31_335
*19436 FILLER_31_337
*19437 FILLER_31_349
*19438 FILLER_31_361
*19439 FILLER_31_373
*19440 FILLER_31_385
*19441 FILLER_31_39
*19442 FILLER_31_391
*19443 FILLER_31_393
*19444 FILLER_31_405
*19445 FILLER_31_417
*19446 FILLER_31_429
*19447 FILLER_31_441
*19448 FILLER_31_447
*19449 FILLER_31_449
*19450 FILLER_31_461
*19451 FILLER_31_473
*19452 FILLER_31_485
*19453 FILLER_31_497
*19454 FILLER_31_503
*19455 FILLER_31_505
*19456 FILLER_31_51
*19457 FILLER_31_517
*19458 FILLER_31_529
*19459 FILLER_31_541
*19460 FILLER_31_55
*19461 FILLER_31_553
*19462 FILLER_31_559
*19463 FILLER_31_561
*19464 FILLER_31_57
*19465 FILLER_31_573
*19466 FILLER_31_585
*19467 FILLER_31_597
*19468 FILLER_31_609
*19469 FILLER_31_615
*19470 FILLER_31_617
*19471 FILLER_31_629
*19472 FILLER_31_641
*19473 FILLER_31_653
*19474 FILLER_31_665
*19475 FILLER_31_671
*19476 FILLER_31_673
*19477 FILLER_31_685
*19478 FILLER_31_69
*19479 FILLER_31_697
*19480 FILLER_31_709
*19481 FILLER_31_721
*19482 FILLER_31_727
*19483 FILLER_31_729
*19484 FILLER_31_741
*19485 FILLER_31_753
*19486 FILLER_31_765
*19487 FILLER_31_777
*19488 FILLER_31_783
*19489 FILLER_31_785
*19490 FILLER_31_797
*19491 FILLER_31_809
*19492 FILLER_31_81
*19493 FILLER_31_821
*19494 FILLER_31_833
*19495 FILLER_31_839
*19496 FILLER_31_841
*19497 FILLER_31_853
*19498 FILLER_31_865
*19499 FILLER_31_877
*19500 FILLER_31_889
*19501 FILLER_31_895
*19502 FILLER_31_897
*19503 FILLER_31_909
*19504 FILLER_31_921
*19505 FILLER_31_93
*19506 FILLER_31_933
*19507 FILLER_31_945
*19508 FILLER_31_951
*19509 FILLER_31_953
*19510 FILLER_31_965
*19511 FILLER_31_977
*19512 FILLER_31_989
*19513 FILLER_32_1005
*19514 FILLER_32_1017
*19515 FILLER_32_1029
*19516 FILLER_32_1035
*19517 FILLER_32_1037
*19518 FILLER_32_1049
*19519 FILLER_32_1061
*19520 FILLER_32_1073
*19521 FILLER_32_1085
*19522 FILLER_32_109
*19523 FILLER_32_1091
*19524 FILLER_32_1093
*19525 FILLER_32_1105
*19526 FILLER_32_1117
*19527 FILLER_32_1129
*19528 FILLER_32_1141
*19529 FILLER_32_1147
*19530 FILLER_32_1149
*19531 FILLER_32_1161
*19532 FILLER_32_1173
*19533 FILLER_32_1185
*19534 FILLER_32_1197
*19535 FILLER_32_1203
*19536 FILLER_32_1205
*19537 FILLER_32_121
*19538 FILLER_32_1217
*19539 FILLER_32_1229
*19540 FILLER_32_1241
*19541 FILLER_32_1253
*19542 FILLER_32_1259
*19543 FILLER_32_1261
*19544 FILLER_32_1273
*19545 FILLER_32_133
*19546 FILLER_32_139
*19547 FILLER_32_141
*19548 FILLER_32_15
*19549 FILLER_32_153
*19550 FILLER_32_165
*19551 FILLER_32_177
*19552 FILLER_32_189
*19553 FILLER_32_195
*19554 FILLER_32_197
*19555 FILLER_32_209
*19556 FILLER_32_221
*19557 FILLER_32_233
*19558 FILLER_32_245
*19559 FILLER_32_251
*19560 FILLER_32_253
*19561 FILLER_32_265
*19562 FILLER_32_27
*19563 FILLER_32_277
*19564 FILLER_32_289
*19565 FILLER_32_29
*19566 FILLER_32_3
*19567 FILLER_32_301
*19568 FILLER_32_307
*19569 FILLER_32_309
*19570 FILLER_32_321
*19571 FILLER_32_333
*19572 FILLER_32_345
*19573 FILLER_32_357
*19574 FILLER_32_363
*19575 FILLER_32_365
*19576 FILLER_32_377
*19577 FILLER_32_389
*19578 FILLER_32_401
*19579 FILLER_32_41
*19580 FILLER_32_413
*19581 FILLER_32_419
*19582 FILLER_32_421
*19583 FILLER_32_433
*19584 FILLER_32_445
*19585 FILLER_32_457
*19586 FILLER_32_469
*19587 FILLER_32_475
*19588 FILLER_32_477
*19589 FILLER_32_489
*19590 FILLER_32_501
*19591 FILLER_32_513
*19592 FILLER_32_525
*19593 FILLER_32_53
*19594 FILLER_32_531
*19595 FILLER_32_533
*19596 FILLER_32_545
*19597 FILLER_32_557
*19598 FILLER_32_569
*19599 FILLER_32_581
*19600 FILLER_32_587
*19601 FILLER_32_589
*19602 FILLER_32_601
*19603 FILLER_32_613
*19604 FILLER_32_625
*19605 FILLER_32_637
*19606 FILLER_32_643
*19607 FILLER_32_645
*19608 FILLER_32_65
*19609 FILLER_32_657
*19610 FILLER_32_669
*19611 FILLER_32_681
*19612 FILLER_32_693
*19613 FILLER_32_699
*19614 FILLER_32_701
*19615 FILLER_32_713
*19616 FILLER_32_725
*19617 FILLER_32_737
*19618 FILLER_32_749
*19619 FILLER_32_755
*19620 FILLER_32_757
*19621 FILLER_32_769
*19622 FILLER_32_77
*19623 FILLER_32_781
*19624 FILLER_32_793
*19625 FILLER_32_805
*19626 FILLER_32_811
*19627 FILLER_32_813
*19628 FILLER_32_825
*19629 FILLER_32_83
*19630 FILLER_32_837
*19631 FILLER_32_849
*19632 FILLER_32_85
*19633 FILLER_32_861
*19634 FILLER_32_867
*19635 FILLER_32_869
*19636 FILLER_32_881
*19637 FILLER_32_893
*19638 FILLER_32_905
*19639 FILLER_32_917
*19640 FILLER_32_923
*19641 FILLER_32_925
*19642 FILLER_32_937
*19643 FILLER_32_949
*19644 FILLER_32_961
*19645 FILLER_32_97
*19646 FILLER_32_973
*19647 FILLER_32_979
*19648 FILLER_32_981
*19649 FILLER_32_993
*19650 FILLER_33_1001
*19651 FILLER_33_1007
*19652 FILLER_33_1009
*19653 FILLER_33_1021
*19654 FILLER_33_1033
*19655 FILLER_33_1045
*19656 FILLER_33_105
*19657 FILLER_33_1057
*19658 FILLER_33_1063
*19659 FILLER_33_1065
*19660 FILLER_33_1077
*19661 FILLER_33_1089
*19662 FILLER_33_1101
*19663 FILLER_33_111
*19664 FILLER_33_1113
*19665 FILLER_33_1119
*19666 FILLER_33_1121
*19667 FILLER_33_113
*19668 FILLER_33_1133
*19669 FILLER_33_1145
*19670 FILLER_33_1157
*19671 FILLER_33_1169
*19672 FILLER_33_1175
*19673 FILLER_33_1177
*19674 FILLER_33_1189
*19675 FILLER_33_1201
*19676 FILLER_33_1213
*19677 FILLER_33_1225
*19678 FILLER_33_1231
*19679 FILLER_33_1233
*19680 FILLER_33_1245
*19681 FILLER_33_125
*19682 FILLER_33_1257
*19683 FILLER_33_1269
*19684 FILLER_33_137
*19685 FILLER_33_149
*19686 FILLER_33_15
*19687 FILLER_33_161
*19688 FILLER_33_167
*19689 FILLER_33_169
*19690 FILLER_33_181
*19691 FILLER_33_193
*19692 FILLER_33_205
*19693 FILLER_33_217
*19694 FILLER_33_223
*19695 FILLER_33_225
*19696 FILLER_33_237
*19697 FILLER_33_249
*19698 FILLER_33_261
*19699 FILLER_33_27
*19700 FILLER_33_273
*19701 FILLER_33_279
*19702 FILLER_33_281
*19703 FILLER_33_293
*19704 FILLER_33_3
*19705 FILLER_33_305
*19706 FILLER_33_317
*19707 FILLER_33_329
*19708 FILLER_33_335
*19709 FILLER_33_337
*19710 FILLER_33_349
*19711 FILLER_33_361
*19712 FILLER_33_373
*19713 FILLER_33_385
*19714 FILLER_33_39
*19715 FILLER_33_391
*19716 FILLER_33_393
*19717 FILLER_33_405
*19718 FILLER_33_417
*19719 FILLER_33_429
*19720 FILLER_33_441
*19721 FILLER_33_447
*19722 FILLER_33_449
*19723 FILLER_33_461
*19724 FILLER_33_473
*19725 FILLER_33_485
*19726 FILLER_33_497
*19727 FILLER_33_503
*19728 FILLER_33_505
*19729 FILLER_33_51
*19730 FILLER_33_517
*19731 FILLER_33_529
*19732 FILLER_33_541
*19733 FILLER_33_55
*19734 FILLER_33_553
*19735 FILLER_33_559
*19736 FILLER_33_561
*19737 FILLER_33_57
*19738 FILLER_33_573
*19739 FILLER_33_585
*19740 FILLER_33_597
*19741 FILLER_33_609
*19742 FILLER_33_615
*19743 FILLER_33_617
*19744 FILLER_33_629
*19745 FILLER_33_641
*19746 FILLER_33_653
*19747 FILLER_33_665
*19748 FILLER_33_671
*19749 FILLER_33_673
*19750 FILLER_33_685
*19751 FILLER_33_69
*19752 FILLER_33_697
*19753 FILLER_33_709
*19754 FILLER_33_721
*19755 FILLER_33_727
*19756 FILLER_33_729
*19757 FILLER_33_741
*19758 FILLER_33_753
*19759 FILLER_33_765
*19760 FILLER_33_777
*19761 FILLER_33_783
*19762 FILLER_33_785
*19763 FILLER_33_797
*19764 FILLER_33_809
*19765 FILLER_33_81
*19766 FILLER_33_821
*19767 FILLER_33_833
*19768 FILLER_33_839
*19769 FILLER_33_841
*19770 FILLER_33_853
*19771 FILLER_33_865
*19772 FILLER_33_877
*19773 FILLER_33_889
*19774 FILLER_33_895
*19775 FILLER_33_897
*19776 FILLER_33_909
*19777 FILLER_33_921
*19778 FILLER_33_93
*19779 FILLER_33_933
*19780 FILLER_33_945
*19781 FILLER_33_951
*19782 FILLER_33_953
*19783 FILLER_33_965
*19784 FILLER_33_977
*19785 FILLER_33_989
*19786 FILLER_34_1005
*19787 FILLER_34_1017
*19788 FILLER_34_1029
*19789 FILLER_34_1035
*19790 FILLER_34_1037
*19791 FILLER_34_1049
*19792 FILLER_34_1061
*19793 FILLER_34_1073
*19794 FILLER_34_1085
*19795 FILLER_34_109
*19796 FILLER_34_1091
*19797 FILLER_34_1093
*19798 FILLER_34_1105
*19799 FILLER_34_1117
*19800 FILLER_34_1129
*19801 FILLER_34_1141
*19802 FILLER_34_1147
*19803 FILLER_34_1149
*19804 FILLER_34_1161
*19805 FILLER_34_1173
*19806 FILLER_34_1185
*19807 FILLER_34_1197
*19808 FILLER_34_1203
*19809 FILLER_34_1205
*19810 FILLER_34_121
*19811 FILLER_34_1217
*19812 FILLER_34_1229
*19813 FILLER_34_1241
*19814 FILLER_34_1253
*19815 FILLER_34_1259
*19816 FILLER_34_1261
*19817 FILLER_34_1273
*19818 FILLER_34_133
*19819 FILLER_34_139
*19820 FILLER_34_141
*19821 FILLER_34_15
*19822 FILLER_34_153
*19823 FILLER_34_165
*19824 FILLER_34_177
*19825 FILLER_34_189
*19826 FILLER_34_195
*19827 FILLER_34_197
*19828 FILLER_34_209
*19829 FILLER_34_221
*19830 FILLER_34_233
*19831 FILLER_34_245
*19832 FILLER_34_251
*19833 FILLER_34_253
*19834 FILLER_34_265
*19835 FILLER_34_27
*19836 FILLER_34_277
*19837 FILLER_34_289
*19838 FILLER_34_29
*19839 FILLER_34_3
*19840 FILLER_34_301
*19841 FILLER_34_307
*19842 FILLER_34_309
*19843 FILLER_34_321
*19844 FILLER_34_333
*19845 FILLER_34_345
*19846 FILLER_34_357
*19847 FILLER_34_363
*19848 FILLER_34_365
*19849 FILLER_34_377
*19850 FILLER_34_389
*19851 FILLER_34_401
*19852 FILLER_34_41
*19853 FILLER_34_413
*19854 FILLER_34_419
*19855 FILLER_34_421
*19856 FILLER_34_433
*19857 FILLER_34_445
*19858 FILLER_34_457
*19859 FILLER_34_469
*19860 FILLER_34_475
*19861 FILLER_34_477
*19862 FILLER_34_489
*19863 FILLER_34_501
*19864 FILLER_34_513
*19865 FILLER_34_525
*19866 FILLER_34_53
*19867 FILLER_34_531
*19868 FILLER_34_533
*19869 FILLER_34_545
*19870 FILLER_34_557
*19871 FILLER_34_569
*19872 FILLER_34_581
*19873 FILLER_34_587
*19874 FILLER_34_589
*19875 FILLER_34_601
*19876 FILLER_34_613
*19877 FILLER_34_625
*19878 FILLER_34_637
*19879 FILLER_34_643
*19880 FILLER_34_645
*19881 FILLER_34_65
*19882 FILLER_34_657
*19883 FILLER_34_669
*19884 FILLER_34_681
*19885 FILLER_34_693
*19886 FILLER_34_699
*19887 FILLER_34_701
*19888 FILLER_34_713
*19889 FILLER_34_725
*19890 FILLER_34_737
*19891 FILLER_34_749
*19892 FILLER_34_755
*19893 FILLER_34_757
*19894 FILLER_34_769
*19895 FILLER_34_77
*19896 FILLER_34_781
*19897 FILLER_34_793
*19898 FILLER_34_805
*19899 FILLER_34_811
*19900 FILLER_34_813
*19901 FILLER_34_825
*19902 FILLER_34_83
*19903 FILLER_34_837
*19904 FILLER_34_849
*19905 FILLER_34_85
*19906 FILLER_34_861
*19907 FILLER_34_867
*19908 FILLER_34_869
*19909 FILLER_34_881
*19910 FILLER_34_893
*19911 FILLER_34_905
*19912 FILLER_34_917
*19913 FILLER_34_923
*19914 FILLER_34_925
*19915 FILLER_34_937
*19916 FILLER_34_949
*19917 FILLER_34_961
*19918 FILLER_34_97
*19919 FILLER_34_973
*19920 FILLER_34_979
*19921 FILLER_34_981
*19922 FILLER_34_993
*19923 FILLER_35_1001
*19924 FILLER_35_1007
*19925 FILLER_35_1009
*19926 FILLER_35_1021
*19927 FILLER_35_1033
*19928 FILLER_35_1045
*19929 FILLER_35_105
*19930 FILLER_35_1057
*19931 FILLER_35_1063
*19932 FILLER_35_1065
*19933 FILLER_35_1077
*19934 FILLER_35_1089
*19935 FILLER_35_1101
*19936 FILLER_35_111
*19937 FILLER_35_1113
*19938 FILLER_35_1119
*19939 FILLER_35_1121
*19940 FILLER_35_113
*19941 FILLER_35_1133
*19942 FILLER_35_1145
*19943 FILLER_35_1157
*19944 FILLER_35_1169
*19945 FILLER_35_1175
*19946 FILLER_35_1177
*19947 FILLER_35_1189
*19948 FILLER_35_1201
*19949 FILLER_35_1213
*19950 FILLER_35_1225
*19951 FILLER_35_1231
*19952 FILLER_35_1233
*19953 FILLER_35_1245
*19954 FILLER_35_125
*19955 FILLER_35_1257
*19956 FILLER_35_1269
*19957 FILLER_35_137
*19958 FILLER_35_149
*19959 FILLER_35_15
*19960 FILLER_35_161
*19961 FILLER_35_167
*19962 FILLER_35_169
*19963 FILLER_35_181
*19964 FILLER_35_193
*19965 FILLER_35_205
*19966 FILLER_35_217
*19967 FILLER_35_223
*19968 FILLER_35_225
*19969 FILLER_35_237
*19970 FILLER_35_249
*19971 FILLER_35_261
*19972 FILLER_35_27
*19973 FILLER_35_273
*19974 FILLER_35_279
*19975 FILLER_35_281
*19976 FILLER_35_293
*19977 FILLER_35_3
*19978 FILLER_35_305
*19979 FILLER_35_317
*19980 FILLER_35_329
*19981 FILLER_35_335
*19982 FILLER_35_337
*19983 FILLER_35_349
*19984 FILLER_35_361
*19985 FILLER_35_373
*19986 FILLER_35_385
*19987 FILLER_35_39
*19988 FILLER_35_391
*19989 FILLER_35_393
*19990 FILLER_35_405
*19991 FILLER_35_417
*19992 FILLER_35_429
*19993 FILLER_35_441
*19994 FILLER_35_447
*19995 FILLER_35_449
*19996 FILLER_35_461
*19997 FILLER_35_473
*19998 FILLER_35_485
*19999 FILLER_35_497
*20000 FILLER_35_503
*20001 FILLER_35_505
*20002 FILLER_35_51
*20003 FILLER_35_517
*20004 FILLER_35_529
*20005 FILLER_35_541
*20006 FILLER_35_55
*20007 FILLER_35_553
*20008 FILLER_35_559
*20009 FILLER_35_561
*20010 FILLER_35_57
*20011 FILLER_35_573
*20012 FILLER_35_585
*20013 FILLER_35_597
*20014 FILLER_35_609
*20015 FILLER_35_615
*20016 FILLER_35_617
*20017 FILLER_35_629
*20018 FILLER_35_641
*20019 FILLER_35_653
*20020 FILLER_35_665
*20021 FILLER_35_671
*20022 FILLER_35_673
*20023 FILLER_35_685
*20024 FILLER_35_69
*20025 FILLER_35_697
*20026 FILLER_35_709
*20027 FILLER_35_721
*20028 FILLER_35_727
*20029 FILLER_35_729
*20030 FILLER_35_741
*20031 FILLER_35_753
*20032 FILLER_35_765
*20033 FILLER_35_777
*20034 FILLER_35_783
*20035 FILLER_35_785
*20036 FILLER_35_797
*20037 FILLER_35_809
*20038 FILLER_35_81
*20039 FILLER_35_821
*20040 FILLER_35_833
*20041 FILLER_35_839
*20042 FILLER_35_841
*20043 FILLER_35_853
*20044 FILLER_35_865
*20045 FILLER_35_877
*20046 FILLER_35_889
*20047 FILLER_35_895
*20048 FILLER_35_897
*20049 FILLER_35_909
*20050 FILLER_35_921
*20051 FILLER_35_93
*20052 FILLER_35_933
*20053 FILLER_35_945
*20054 FILLER_35_951
*20055 FILLER_35_953
*20056 FILLER_35_965
*20057 FILLER_35_977
*20058 FILLER_35_989
*20059 FILLER_36_1005
*20060 FILLER_36_1017
*20061 FILLER_36_1029
*20062 FILLER_36_1035
*20063 FILLER_36_1037
*20064 FILLER_36_1049
*20065 FILLER_36_1061
*20066 FILLER_36_1073
*20067 FILLER_36_1085
*20068 FILLER_36_109
*20069 FILLER_36_1091
*20070 FILLER_36_1093
*20071 FILLER_36_1105
*20072 FILLER_36_1117
*20073 FILLER_36_1129
*20074 FILLER_36_1141
*20075 FILLER_36_1147
*20076 FILLER_36_1149
*20077 FILLER_36_1161
*20078 FILLER_36_1173
*20079 FILLER_36_1185
*20080 FILLER_36_1197
*20081 FILLER_36_1203
*20082 FILLER_36_1205
*20083 FILLER_36_121
*20084 FILLER_36_1217
*20085 FILLER_36_1229
*20086 FILLER_36_1241
*20087 FILLER_36_1253
*20088 FILLER_36_1259
*20089 FILLER_36_1261
*20090 FILLER_36_1273
*20091 FILLER_36_133
*20092 FILLER_36_139
*20093 FILLER_36_141
*20094 FILLER_36_15
*20095 FILLER_36_153
*20096 FILLER_36_165
*20097 FILLER_36_177
*20098 FILLER_36_189
*20099 FILLER_36_195
*20100 FILLER_36_197
*20101 FILLER_36_209
*20102 FILLER_36_221
*20103 FILLER_36_233
*20104 FILLER_36_245
*20105 FILLER_36_251
*20106 FILLER_36_253
*20107 FILLER_36_265
*20108 FILLER_36_27
*20109 FILLER_36_277
*20110 FILLER_36_289
*20111 FILLER_36_29
*20112 FILLER_36_3
*20113 FILLER_36_301
*20114 FILLER_36_307
*20115 FILLER_36_309
*20116 FILLER_36_321
*20117 FILLER_36_333
*20118 FILLER_36_345
*20119 FILLER_36_357
*20120 FILLER_36_363
*20121 FILLER_36_365
*20122 FILLER_36_377
*20123 FILLER_36_389
*20124 FILLER_36_401
*20125 FILLER_36_41
*20126 FILLER_36_413
*20127 FILLER_36_419
*20128 FILLER_36_421
*20129 FILLER_36_433
*20130 FILLER_36_445
*20131 FILLER_36_457
*20132 FILLER_36_469
*20133 FILLER_36_475
*20134 FILLER_36_477
*20135 FILLER_36_489
*20136 FILLER_36_501
*20137 FILLER_36_513
*20138 FILLER_36_525
*20139 FILLER_36_53
*20140 FILLER_36_531
*20141 FILLER_36_533
*20142 FILLER_36_545
*20143 FILLER_36_557
*20144 FILLER_36_569
*20145 FILLER_36_581
*20146 FILLER_36_587
*20147 FILLER_36_589
*20148 FILLER_36_601
*20149 FILLER_36_613
*20150 FILLER_36_625
*20151 FILLER_36_637
*20152 FILLER_36_643
*20153 FILLER_36_645
*20154 FILLER_36_65
*20155 FILLER_36_657
*20156 FILLER_36_669
*20157 FILLER_36_681
*20158 FILLER_36_693
*20159 FILLER_36_699
*20160 FILLER_36_701
*20161 FILLER_36_713
*20162 FILLER_36_725
*20163 FILLER_36_737
*20164 FILLER_36_749
*20165 FILLER_36_755
*20166 FILLER_36_757
*20167 FILLER_36_769
*20168 FILLER_36_77
*20169 FILLER_36_781
*20170 FILLER_36_793
*20171 FILLER_36_805
*20172 FILLER_36_811
*20173 FILLER_36_813
*20174 FILLER_36_825
*20175 FILLER_36_83
*20176 FILLER_36_837
*20177 FILLER_36_849
*20178 FILLER_36_85
*20179 FILLER_36_861
*20180 FILLER_36_867
*20181 FILLER_36_869
*20182 FILLER_36_881
*20183 FILLER_36_893
*20184 FILLER_36_905
*20185 FILLER_36_917
*20186 FILLER_36_923
*20187 FILLER_36_925
*20188 FILLER_36_937
*20189 FILLER_36_949
*20190 FILLER_36_961
*20191 FILLER_36_97
*20192 FILLER_36_973
*20193 FILLER_36_979
*20194 FILLER_36_981
*20195 FILLER_36_993
*20196 FILLER_37_1001
*20197 FILLER_37_1007
*20198 FILLER_37_1009
*20199 FILLER_37_1021
*20200 FILLER_37_1033
*20201 FILLER_37_1045
*20202 FILLER_37_105
*20203 FILLER_37_1057
*20204 FILLER_37_1063
*20205 FILLER_37_1065
*20206 FILLER_37_1077
*20207 FILLER_37_1089
*20208 FILLER_37_1101
*20209 FILLER_37_111
*20210 FILLER_37_1113
*20211 FILLER_37_1119
*20212 FILLER_37_1121
*20213 FILLER_37_113
*20214 FILLER_37_1133
*20215 FILLER_37_1145
*20216 FILLER_37_1157
*20217 FILLER_37_1169
*20218 FILLER_37_1175
*20219 FILLER_37_1177
*20220 FILLER_37_1189
*20221 FILLER_37_1201
*20222 FILLER_37_1213
*20223 FILLER_37_1225
*20224 FILLER_37_1231
*20225 FILLER_37_1233
*20226 FILLER_37_1245
*20227 FILLER_37_125
*20228 FILLER_37_1257
*20229 FILLER_37_1269
*20230 FILLER_37_137
*20231 FILLER_37_149
*20232 FILLER_37_161
*20233 FILLER_37_167
*20234 FILLER_37_169
*20235 FILLER_37_181
*20236 FILLER_37_19
*20237 FILLER_37_193
*20238 FILLER_37_205
*20239 FILLER_37_217
*20240 FILLER_37_223
*20241 FILLER_37_225
*20242 FILLER_37_237
*20243 FILLER_37_249
*20244 FILLER_37_261
*20245 FILLER_37_273
*20246 FILLER_37_279
*20247 FILLER_37_281
*20248 FILLER_37_293
*20249 FILLER_37_3
*20250 FILLER_37_305
*20251 FILLER_37_31
*20252 FILLER_37_317
*20253 FILLER_37_329
*20254 FILLER_37_335
*20255 FILLER_37_337
*20256 FILLER_37_349
*20257 FILLER_37_361
*20258 FILLER_37_373
*20259 FILLER_37_385
*20260 FILLER_37_391
*20261 FILLER_37_393
*20262 FILLER_37_405
*20263 FILLER_37_417
*20264 FILLER_37_429
*20265 FILLER_37_43
*20266 FILLER_37_441
*20267 FILLER_37_447
*20268 FILLER_37_449
*20269 FILLER_37_461
*20270 FILLER_37_473
*20271 FILLER_37_485
*20272 FILLER_37_497
*20273 FILLER_37_503
*20274 FILLER_37_505
*20275 FILLER_37_517
*20276 FILLER_37_529
*20277 FILLER_37_541
*20278 FILLER_37_55
*20279 FILLER_37_553
*20280 FILLER_37_559
*20281 FILLER_37_561
*20282 FILLER_37_57
*20283 FILLER_37_573
*20284 FILLER_37_585
*20285 FILLER_37_597
*20286 FILLER_37_609
*20287 FILLER_37_615
*20288 FILLER_37_617
*20289 FILLER_37_629
*20290 FILLER_37_641
*20291 FILLER_37_653
*20292 FILLER_37_665
*20293 FILLER_37_671
*20294 FILLER_37_673
*20295 FILLER_37_685
*20296 FILLER_37_69
*20297 FILLER_37_697
*20298 FILLER_37_7
*20299 FILLER_37_709
*20300 FILLER_37_721
*20301 FILLER_37_727
*20302 FILLER_37_729
*20303 FILLER_37_741
*20304 FILLER_37_753
*20305 FILLER_37_765
*20306 FILLER_37_777
*20307 FILLER_37_783
*20308 FILLER_37_785
*20309 FILLER_37_797
*20310 FILLER_37_809
*20311 FILLER_37_81
*20312 FILLER_37_821
*20313 FILLER_37_833
*20314 FILLER_37_839
*20315 FILLER_37_841
*20316 FILLER_37_853
*20317 FILLER_37_865
*20318 FILLER_37_877
*20319 FILLER_37_889
*20320 FILLER_37_895
*20321 FILLER_37_897
*20322 FILLER_37_909
*20323 FILLER_37_921
*20324 FILLER_37_93
*20325 FILLER_37_933
*20326 FILLER_37_945
*20327 FILLER_37_951
*20328 FILLER_37_953
*20329 FILLER_37_965
*20330 FILLER_37_977
*20331 FILLER_37_989
*20332 FILLER_38_1005
*20333 FILLER_38_1017
*20334 FILLER_38_1029
*20335 FILLER_38_1035
*20336 FILLER_38_1037
*20337 FILLER_38_1049
*20338 FILLER_38_1061
*20339 FILLER_38_1073
*20340 FILLER_38_1085
*20341 FILLER_38_109
*20342 FILLER_38_1091
*20343 FILLER_38_1093
*20344 FILLER_38_1105
*20345 FILLER_38_1117
*20346 FILLER_38_1129
*20347 FILLER_38_1141
*20348 FILLER_38_1147
*20349 FILLER_38_1149
*20350 FILLER_38_1161
*20351 FILLER_38_1173
*20352 FILLER_38_1185
*20353 FILLER_38_1197
*20354 FILLER_38_1203
*20355 FILLER_38_1205
*20356 FILLER_38_121
*20357 FILLER_38_1217
*20358 FILLER_38_1229
*20359 FILLER_38_1241
*20360 FILLER_38_1253
*20361 FILLER_38_1259
*20362 FILLER_38_1261
*20363 FILLER_38_1273
*20364 FILLER_38_133
*20365 FILLER_38_139
*20366 FILLER_38_141
*20367 FILLER_38_15
*20368 FILLER_38_153
*20369 FILLER_38_165
*20370 FILLER_38_177
*20371 FILLER_38_189
*20372 FILLER_38_195
*20373 FILLER_38_197
*20374 FILLER_38_209
*20375 FILLER_38_221
*20376 FILLER_38_233
*20377 FILLER_38_245
*20378 FILLER_38_251
*20379 FILLER_38_253
*20380 FILLER_38_265
*20381 FILLER_38_27
*20382 FILLER_38_277
*20383 FILLER_38_289
*20384 FILLER_38_29
*20385 FILLER_38_3
*20386 FILLER_38_301
*20387 FILLER_38_307
*20388 FILLER_38_309
*20389 FILLER_38_321
*20390 FILLER_38_333
*20391 FILLER_38_345
*20392 FILLER_38_357
*20393 FILLER_38_363
*20394 FILLER_38_365
*20395 FILLER_38_377
*20396 FILLER_38_389
*20397 FILLER_38_401
*20398 FILLER_38_41
*20399 FILLER_38_413
*20400 FILLER_38_419
*20401 FILLER_38_421
*20402 FILLER_38_433
*20403 FILLER_38_445
*20404 FILLER_38_457
*20405 FILLER_38_469
*20406 FILLER_38_475
*20407 FILLER_38_477
*20408 FILLER_38_489
*20409 FILLER_38_501
*20410 FILLER_38_513
*20411 FILLER_38_525
*20412 FILLER_38_53
*20413 FILLER_38_531
*20414 FILLER_38_533
*20415 FILLER_38_545
*20416 FILLER_38_557
*20417 FILLER_38_569
*20418 FILLER_38_581
*20419 FILLER_38_587
*20420 FILLER_38_589
*20421 FILLER_38_601
*20422 FILLER_38_613
*20423 FILLER_38_625
*20424 FILLER_38_637
*20425 FILLER_38_643
*20426 FILLER_38_645
*20427 FILLER_38_65
*20428 FILLER_38_657
*20429 FILLER_38_669
*20430 FILLER_38_681
*20431 FILLER_38_693
*20432 FILLER_38_699
*20433 FILLER_38_701
*20434 FILLER_38_713
*20435 FILLER_38_725
*20436 FILLER_38_737
*20437 FILLER_38_749
*20438 FILLER_38_755
*20439 FILLER_38_757
*20440 FILLER_38_769
*20441 FILLER_38_77
*20442 FILLER_38_781
*20443 FILLER_38_793
*20444 FILLER_38_805
*20445 FILLER_38_811
*20446 FILLER_38_813
*20447 FILLER_38_825
*20448 FILLER_38_83
*20449 FILLER_38_837
*20450 FILLER_38_849
*20451 FILLER_38_85
*20452 FILLER_38_861
*20453 FILLER_38_867
*20454 FILLER_38_869
*20455 FILLER_38_881
*20456 FILLER_38_893
*20457 FILLER_38_905
*20458 FILLER_38_917
*20459 FILLER_38_923
*20460 FILLER_38_925
*20461 FILLER_38_937
*20462 FILLER_38_949
*20463 FILLER_38_961
*20464 FILLER_38_97
*20465 FILLER_38_973
*20466 FILLER_38_979
*20467 FILLER_38_981
*20468 FILLER_38_993
*20469 FILLER_39_1001
*20470 FILLER_39_1007
*20471 FILLER_39_1009
*20472 FILLER_39_1021
*20473 FILLER_39_1033
*20474 FILLER_39_1045
*20475 FILLER_39_105
*20476 FILLER_39_1057
*20477 FILLER_39_1063
*20478 FILLER_39_1065
*20479 FILLER_39_1077
*20480 FILLER_39_1089
*20481 FILLER_39_11
*20482 FILLER_39_1101
*20483 FILLER_39_111
*20484 FILLER_39_1113
*20485 FILLER_39_1119
*20486 FILLER_39_1121
*20487 FILLER_39_113
*20488 FILLER_39_1133
*20489 FILLER_39_1145
*20490 FILLER_39_1157
*20491 FILLER_39_1169
*20492 FILLER_39_1175
*20493 FILLER_39_1177
*20494 FILLER_39_1189
*20495 FILLER_39_1201
*20496 FILLER_39_1213
*20497 FILLER_39_1225
*20498 FILLER_39_1231
*20499 FILLER_39_1233
*20500 FILLER_39_1245
*20501 FILLER_39_125
*20502 FILLER_39_1257
*20503 FILLER_39_1269
*20504 FILLER_39_137
*20505 FILLER_39_149
*20506 FILLER_39_15
*20507 FILLER_39_161
*20508 FILLER_39_167
*20509 FILLER_39_169
*20510 FILLER_39_181
*20511 FILLER_39_193
*20512 FILLER_39_205
*20513 FILLER_39_217
*20514 FILLER_39_223
*20515 FILLER_39_225
*20516 FILLER_39_237
*20517 FILLER_39_249
*20518 FILLER_39_261
*20519 FILLER_39_27
*20520 FILLER_39_273
*20521 FILLER_39_279
*20522 FILLER_39_281
*20523 FILLER_39_293
*20524 FILLER_39_3
*20525 FILLER_39_305
*20526 FILLER_39_317
*20527 FILLER_39_329
*20528 FILLER_39_335
*20529 FILLER_39_337
*20530 FILLER_39_349
*20531 FILLER_39_361
*20532 FILLER_39_373
*20533 FILLER_39_385
*20534 FILLER_39_39
*20535 FILLER_39_391
*20536 FILLER_39_393
*20537 FILLER_39_405
*20538 FILLER_39_417
*20539 FILLER_39_429
*20540 FILLER_39_441
*20541 FILLER_39_447
*20542 FILLER_39_449
*20543 FILLER_39_461
*20544 FILLER_39_473
*20545 FILLER_39_485
*20546 FILLER_39_497
*20547 FILLER_39_503
*20548 FILLER_39_505
*20549 FILLER_39_51
*20550 FILLER_39_517
*20551 FILLER_39_529
*20552 FILLER_39_541
*20553 FILLER_39_55
*20554 FILLER_39_553
*20555 FILLER_39_559
*20556 FILLER_39_561
*20557 FILLER_39_57
*20558 FILLER_39_573
*20559 FILLER_39_585
*20560 FILLER_39_597
*20561 FILLER_39_609
*20562 FILLER_39_615
*20563 FILLER_39_617
*20564 FILLER_39_629
*20565 FILLER_39_641
*20566 FILLER_39_653
*20567 FILLER_39_665
*20568 FILLER_39_671
*20569 FILLER_39_673
*20570 FILLER_39_685
*20571 FILLER_39_69
*20572 FILLER_39_697
*20573 FILLER_39_709
*20574 FILLER_39_721
*20575 FILLER_39_727
*20576 FILLER_39_729
*20577 FILLER_39_741
*20578 FILLER_39_753
*20579 FILLER_39_765
*20580 FILLER_39_777
*20581 FILLER_39_783
*20582 FILLER_39_785
*20583 FILLER_39_797
*20584 FILLER_39_809
*20585 FILLER_39_81
*20586 FILLER_39_821
*20587 FILLER_39_833
*20588 FILLER_39_839
*20589 FILLER_39_841
*20590 FILLER_39_853
*20591 FILLER_39_865
*20592 FILLER_39_877
*20593 FILLER_39_889
*20594 FILLER_39_895
*20595 FILLER_39_897
*20596 FILLER_39_909
*20597 FILLER_39_921
*20598 FILLER_39_93
*20599 FILLER_39_933
*20600 FILLER_39_945
*20601 FILLER_39_951
*20602 FILLER_39_953
*20603 FILLER_39_965
*20604 FILLER_39_977
*20605 FILLER_39_989
*20606 FILLER_3_1001
*20607 FILLER_3_1007
*20608 FILLER_3_1009
*20609 FILLER_3_1021
*20610 FILLER_3_1033
*20611 FILLER_3_1045
*20612 FILLER_3_105
*20613 FILLER_3_1057
*20614 FILLER_3_1063
*20615 FILLER_3_1065
*20616 FILLER_3_1077
*20617 FILLER_3_1089
*20618 FILLER_3_1101
*20619 FILLER_3_111
*20620 FILLER_3_1113
*20621 FILLER_3_1119
*20622 FILLER_3_1121
*20623 FILLER_3_113
*20624 FILLER_3_1133
*20625 FILLER_3_1145
*20626 FILLER_3_1157
*20627 FILLER_3_1169
*20628 FILLER_3_1175
*20629 FILLER_3_1177
*20630 FILLER_3_1189
*20631 FILLER_3_1201
*20632 FILLER_3_1213
*20633 FILLER_3_1225
*20634 FILLER_3_1231
*20635 FILLER_3_1233
*20636 FILLER_3_1245
*20637 FILLER_3_125
*20638 FILLER_3_1257
*20639 FILLER_3_1269
*20640 FILLER_3_137
*20641 FILLER_3_149
*20642 FILLER_3_15
*20643 FILLER_3_161
*20644 FILLER_3_167
*20645 FILLER_3_169
*20646 FILLER_3_181
*20647 FILLER_3_193
*20648 FILLER_3_205
*20649 FILLER_3_217
*20650 FILLER_3_223
*20651 FILLER_3_225
*20652 FILLER_3_237
*20653 FILLER_3_249
*20654 FILLER_3_261
*20655 FILLER_3_27
*20656 FILLER_3_273
*20657 FILLER_3_279
*20658 FILLER_3_281
*20659 FILLER_3_293
*20660 FILLER_3_3
*20661 FILLER_3_305
*20662 FILLER_3_317
*20663 FILLER_3_329
*20664 FILLER_3_335
*20665 FILLER_3_337
*20666 FILLER_3_349
*20667 FILLER_3_361
*20668 FILLER_3_373
*20669 FILLER_3_385
*20670 FILLER_3_39
*20671 FILLER_3_391
*20672 FILLER_3_393
*20673 FILLER_3_405
*20674 FILLER_3_417
*20675 FILLER_3_429
*20676 FILLER_3_441
*20677 FILLER_3_447
*20678 FILLER_3_449
*20679 FILLER_3_461
*20680 FILLER_3_473
*20681 FILLER_3_485
*20682 FILLER_3_497
*20683 FILLER_3_503
*20684 FILLER_3_505
*20685 FILLER_3_51
*20686 FILLER_3_517
*20687 FILLER_3_529
*20688 FILLER_3_541
*20689 FILLER_3_55
*20690 FILLER_3_553
*20691 FILLER_3_559
*20692 FILLER_3_561
*20693 FILLER_3_57
*20694 FILLER_3_573
*20695 FILLER_3_585
*20696 FILLER_3_597
*20697 FILLER_3_609
*20698 FILLER_3_615
*20699 FILLER_3_617
*20700 FILLER_3_629
*20701 FILLER_3_641
*20702 FILLER_3_653
*20703 FILLER_3_665
*20704 FILLER_3_671
*20705 FILLER_3_673
*20706 FILLER_3_685
*20707 FILLER_3_69
*20708 FILLER_3_697
*20709 FILLER_3_709
*20710 FILLER_3_721
*20711 FILLER_3_727
*20712 FILLER_3_729
*20713 FILLER_3_741
*20714 FILLER_3_753
*20715 FILLER_3_765
*20716 FILLER_3_777
*20717 FILLER_3_783
*20718 FILLER_3_785
*20719 FILLER_3_797
*20720 FILLER_3_809
*20721 FILLER_3_81
*20722 FILLER_3_821
*20723 FILLER_3_833
*20724 FILLER_3_839
*20725 FILLER_3_841
*20726 FILLER_3_853
*20727 FILLER_3_865
*20728 FILLER_3_877
*20729 FILLER_3_889
*20730 FILLER_3_895
*20731 FILLER_3_897
*20732 FILLER_3_909
*20733 FILLER_3_921
*20734 FILLER_3_93
*20735 FILLER_3_933
*20736 FILLER_3_945
*20737 FILLER_3_951
*20738 FILLER_3_953
*20739 FILLER_3_965
*20740 FILLER_3_977
*20741 FILLER_3_989
*20742 FILLER_40_1005
*20743 FILLER_40_1017
*20744 FILLER_40_1029
*20745 FILLER_40_1035
*20746 FILLER_40_1037
*20747 FILLER_40_1049
*20748 FILLER_40_1061
*20749 FILLER_40_1073
*20750 FILLER_40_1085
*20751 FILLER_40_109
*20752 FILLER_40_1091
*20753 FILLER_40_1093
*20754 FILLER_40_1105
*20755 FILLER_40_1117
*20756 FILLER_40_1129
*20757 FILLER_40_1141
*20758 FILLER_40_1147
*20759 FILLER_40_1149
*20760 FILLER_40_1161
*20761 FILLER_40_1173
*20762 FILLER_40_1185
*20763 FILLER_40_1197
*20764 FILLER_40_1203
*20765 FILLER_40_1205
*20766 FILLER_40_121
*20767 FILLER_40_1217
*20768 FILLER_40_1229
*20769 FILLER_40_1241
*20770 FILLER_40_1253
*20771 FILLER_40_1259
*20772 FILLER_40_1261
*20773 FILLER_40_1273
*20774 FILLER_40_133
*20775 FILLER_40_139
*20776 FILLER_40_141
*20777 FILLER_40_153
*20778 FILLER_40_165
*20779 FILLER_40_177
*20780 FILLER_40_189
*20781 FILLER_40_195
*20782 FILLER_40_197
*20783 FILLER_40_20
*20784 FILLER_40_209
*20785 FILLER_40_221
*20786 FILLER_40_233
*20787 FILLER_40_245
*20788 FILLER_40_251
*20789 FILLER_40_253
*20790 FILLER_40_265
*20791 FILLER_40_277
*20792 FILLER_40_289
*20793 FILLER_40_29
*20794 FILLER_40_3
*20795 FILLER_40_301
*20796 FILLER_40_307
*20797 FILLER_40_309
*20798 FILLER_40_321
*20799 FILLER_40_333
*20800 FILLER_40_345
*20801 FILLER_40_357
*20802 FILLER_40_363
*20803 FILLER_40_365
*20804 FILLER_40_377
*20805 FILLER_40_389
*20806 FILLER_40_401
*20807 FILLER_40_41
*20808 FILLER_40_413
*20809 FILLER_40_419
*20810 FILLER_40_421
*20811 FILLER_40_433
*20812 FILLER_40_445
*20813 FILLER_40_457
*20814 FILLER_40_469
*20815 FILLER_40_475
*20816 FILLER_40_477
*20817 FILLER_40_489
*20818 FILLER_40_501
*20819 FILLER_40_513
*20820 FILLER_40_525
*20821 FILLER_40_53
*20822 FILLER_40_531
*20823 FILLER_40_533
*20824 FILLER_40_545
*20825 FILLER_40_557
*20826 FILLER_40_569
*20827 FILLER_40_581
*20828 FILLER_40_587
*20829 FILLER_40_589
*20830 FILLER_40_601
*20831 FILLER_40_613
*20832 FILLER_40_625
*20833 FILLER_40_637
*20834 FILLER_40_643
*20835 FILLER_40_645
*20836 FILLER_40_65
*20837 FILLER_40_657
*20838 FILLER_40_669
*20839 FILLER_40_681
*20840 FILLER_40_693
*20841 FILLER_40_699
*20842 FILLER_40_701
*20843 FILLER_40_713
*20844 FILLER_40_725
*20845 FILLER_40_737
*20846 FILLER_40_749
*20847 FILLER_40_755
*20848 FILLER_40_757
*20849 FILLER_40_769
*20850 FILLER_40_77
*20851 FILLER_40_781
*20852 FILLER_40_793
*20853 FILLER_40_8
*20854 FILLER_40_805
*20855 FILLER_40_811
*20856 FILLER_40_813
*20857 FILLER_40_825
*20858 FILLER_40_83
*20859 FILLER_40_837
*20860 FILLER_40_849
*20861 FILLER_40_85
*20862 FILLER_40_861
*20863 FILLER_40_867
*20864 FILLER_40_869
*20865 FILLER_40_881
*20866 FILLER_40_893
*20867 FILLER_40_905
*20868 FILLER_40_917
*20869 FILLER_40_923
*20870 FILLER_40_925
*20871 FILLER_40_937
*20872 FILLER_40_949
*20873 FILLER_40_961
*20874 FILLER_40_97
*20875 FILLER_40_973
*20876 FILLER_40_979
*20877 FILLER_40_981
*20878 FILLER_40_993
*20879 FILLER_41_1001
*20880 FILLER_41_1007
*20881 FILLER_41_1009
*20882 FILLER_41_1021
*20883 FILLER_41_1033
*20884 FILLER_41_1045
*20885 FILLER_41_105
*20886 FILLER_41_1057
*20887 FILLER_41_1063
*20888 FILLER_41_1065
*20889 FILLER_41_1077
*20890 FILLER_41_1089
*20891 FILLER_41_1101
*20892 FILLER_41_111
*20893 FILLER_41_1113
*20894 FILLER_41_1119
*20895 FILLER_41_1121
*20896 FILLER_41_113
*20897 FILLER_41_1133
*20898 FILLER_41_1145
*20899 FILLER_41_1157
*20900 FILLER_41_1169
*20901 FILLER_41_1175
*20902 FILLER_41_1177
*20903 FILLER_41_1189
*20904 FILLER_41_1201
*20905 FILLER_41_1213
*20906 FILLER_41_1225
*20907 FILLER_41_1231
*20908 FILLER_41_1233
*20909 FILLER_41_1245
*20910 FILLER_41_125
*20911 FILLER_41_1257
*20912 FILLER_41_1269
*20913 FILLER_41_137
*20914 FILLER_41_149
*20915 FILLER_41_161
*20916 FILLER_41_167
*20917 FILLER_41_169
*20918 FILLER_41_181
*20919 FILLER_41_19
*20920 FILLER_41_193
*20921 FILLER_41_205
*20922 FILLER_41_217
*20923 FILLER_41_223
*20924 FILLER_41_225
*20925 FILLER_41_237
*20926 FILLER_41_249
*20927 FILLER_41_261
*20928 FILLER_41_273
*20929 FILLER_41_279
*20930 FILLER_41_281
*20931 FILLER_41_293
*20932 FILLER_41_3
*20933 FILLER_41_305
*20934 FILLER_41_31
*20935 FILLER_41_317
*20936 FILLER_41_329
*20937 FILLER_41_335
*20938 FILLER_41_337
*20939 FILLER_41_349
*20940 FILLER_41_361
*20941 FILLER_41_373
*20942 FILLER_41_385
*20943 FILLER_41_391
*20944 FILLER_41_393
*20945 FILLER_41_405
*20946 FILLER_41_417
*20947 FILLER_41_429
*20948 FILLER_41_43
*20949 FILLER_41_441
*20950 FILLER_41_447
*20951 FILLER_41_449
*20952 FILLER_41_461
*20953 FILLER_41_473
*20954 FILLER_41_485
*20955 FILLER_41_497
*20956 FILLER_41_503
*20957 FILLER_41_505
*20958 FILLER_41_517
*20959 FILLER_41_529
*20960 FILLER_41_541
*20961 FILLER_41_55
*20962 FILLER_41_553
*20963 FILLER_41_559
*20964 FILLER_41_561
*20965 FILLER_41_57
*20966 FILLER_41_573
*20967 FILLER_41_585
*20968 FILLER_41_597
*20969 FILLER_41_609
*20970 FILLER_41_615
*20971 FILLER_41_617
*20972 FILLER_41_629
*20973 FILLER_41_641
*20974 FILLER_41_653
*20975 FILLER_41_665
*20976 FILLER_41_671
*20977 FILLER_41_673
*20978 FILLER_41_685
*20979 FILLER_41_69
*20980 FILLER_41_697
*20981 FILLER_41_7
*20982 FILLER_41_709
*20983 FILLER_41_721
*20984 FILLER_41_727
*20985 FILLER_41_729
*20986 FILLER_41_741
*20987 FILLER_41_753
*20988 FILLER_41_765
*20989 FILLER_41_777
*20990 FILLER_41_783
*20991 FILLER_41_785
*20992 FILLER_41_797
*20993 FILLER_41_809
*20994 FILLER_41_81
*20995 FILLER_41_821
*20996 FILLER_41_833
*20997 FILLER_41_839
*20998 FILLER_41_841
*20999 FILLER_41_853
*21000 FILLER_41_865
*21001 FILLER_41_877
*21002 FILLER_41_889
*21003 FILLER_41_895
*21004 FILLER_41_897
*21005 FILLER_41_909
*21006 FILLER_41_921
*21007 FILLER_41_93
*21008 FILLER_41_933
*21009 FILLER_41_945
*21010 FILLER_41_951
*21011 FILLER_41_953
*21012 FILLER_41_965
*21013 FILLER_41_977
*21014 FILLER_41_989
*21015 FILLER_42_1005
*21016 FILLER_42_1017
*21017 FILLER_42_1029
*21018 FILLER_42_1035
*21019 FILLER_42_1037
*21020 FILLER_42_1049
*21021 FILLER_42_1061
*21022 FILLER_42_1073
*21023 FILLER_42_1085
*21024 FILLER_42_109
*21025 FILLER_42_1091
*21026 FILLER_42_1093
*21027 FILLER_42_1105
*21028 FILLER_42_1117
*21029 FILLER_42_1129
*21030 FILLER_42_1141
*21031 FILLER_42_1147
*21032 FILLER_42_1149
*21033 FILLER_42_1161
*21034 FILLER_42_1173
*21035 FILLER_42_1185
*21036 FILLER_42_1197
*21037 FILLER_42_1203
*21038 FILLER_42_1205
*21039 FILLER_42_121
*21040 FILLER_42_1217
*21041 FILLER_42_1229
*21042 FILLER_42_1241
*21043 FILLER_42_1253
*21044 FILLER_42_1259
*21045 FILLER_42_1261
*21046 FILLER_42_1273
*21047 FILLER_42_133
*21048 FILLER_42_139
*21049 FILLER_42_141
*21050 FILLER_42_153
*21051 FILLER_42_165
*21052 FILLER_42_177
*21053 FILLER_42_189
*21054 FILLER_42_19
*21055 FILLER_42_195
*21056 FILLER_42_197
*21057 FILLER_42_209
*21058 FILLER_42_221
*21059 FILLER_42_233
*21060 FILLER_42_245
*21061 FILLER_42_251
*21062 FILLER_42_253
*21063 FILLER_42_265
*21064 FILLER_42_27
*21065 FILLER_42_277
*21066 FILLER_42_289
*21067 FILLER_42_29
*21068 FILLER_42_3
*21069 FILLER_42_301
*21070 FILLER_42_307
*21071 FILLER_42_309
*21072 FILLER_42_321
*21073 FILLER_42_333
*21074 FILLER_42_345
*21075 FILLER_42_357
*21076 FILLER_42_363
*21077 FILLER_42_365
*21078 FILLER_42_377
*21079 FILLER_42_389
*21080 FILLER_42_401
*21081 FILLER_42_41
*21082 FILLER_42_413
*21083 FILLER_42_419
*21084 FILLER_42_421
*21085 FILLER_42_433
*21086 FILLER_42_445
*21087 FILLER_42_457
*21088 FILLER_42_469
*21089 FILLER_42_475
*21090 FILLER_42_477
*21091 FILLER_42_489
*21092 FILLER_42_501
*21093 FILLER_42_513
*21094 FILLER_42_525
*21095 FILLER_42_53
*21096 FILLER_42_531
*21097 FILLER_42_533
*21098 FILLER_42_545
*21099 FILLER_42_557
*21100 FILLER_42_569
*21101 FILLER_42_581
*21102 FILLER_42_587
*21103 FILLER_42_589
*21104 FILLER_42_601
*21105 FILLER_42_613
*21106 FILLER_42_625
*21107 FILLER_42_637
*21108 FILLER_42_643
*21109 FILLER_42_645
*21110 FILLER_42_65
*21111 FILLER_42_657
*21112 FILLER_42_669
*21113 FILLER_42_681
*21114 FILLER_42_693
*21115 FILLER_42_699
*21116 FILLER_42_7
*21117 FILLER_42_701
*21118 FILLER_42_713
*21119 FILLER_42_725
*21120 FILLER_42_737
*21121 FILLER_42_749
*21122 FILLER_42_755
*21123 FILLER_42_757
*21124 FILLER_42_769
*21125 FILLER_42_77
*21126 FILLER_42_781
*21127 FILLER_42_793
*21128 FILLER_42_805
*21129 FILLER_42_811
*21130 FILLER_42_813
*21131 FILLER_42_825
*21132 FILLER_42_83
*21133 FILLER_42_837
*21134 FILLER_42_849
*21135 FILLER_42_85
*21136 FILLER_42_861
*21137 FILLER_42_867
*21138 FILLER_42_869
*21139 FILLER_42_881
*21140 FILLER_42_893
*21141 FILLER_42_905
*21142 FILLER_42_917
*21143 FILLER_42_923
*21144 FILLER_42_925
*21145 FILLER_42_937
*21146 FILLER_42_949
*21147 FILLER_42_961
*21148 FILLER_42_97
*21149 FILLER_42_973
*21150 FILLER_42_979
*21151 FILLER_42_981
*21152 FILLER_42_993
*21153 FILLER_43_1001
*21154 FILLER_43_1007
*21155 FILLER_43_1009
*21156 FILLER_43_1021
*21157 FILLER_43_1033
*21158 FILLER_43_1045
*21159 FILLER_43_105
*21160 FILLER_43_1057
*21161 FILLER_43_1063
*21162 FILLER_43_1065
*21163 FILLER_43_1077
*21164 FILLER_43_1089
*21165 FILLER_43_1101
*21166 FILLER_43_111
*21167 FILLER_43_1113
*21168 FILLER_43_1119
*21169 FILLER_43_1121
*21170 FILLER_43_113
*21171 FILLER_43_1133
*21172 FILLER_43_1145
*21173 FILLER_43_1157
*21174 FILLER_43_1169
*21175 FILLER_43_1175
*21176 FILLER_43_1177
*21177 FILLER_43_1189
*21178 FILLER_43_1201
*21179 FILLER_43_1213
*21180 FILLER_43_1225
*21181 FILLER_43_1231
*21182 FILLER_43_1233
*21183 FILLER_43_1245
*21184 FILLER_43_125
*21185 FILLER_43_1257
*21186 FILLER_43_1269
*21187 FILLER_43_137
*21188 FILLER_43_149
*21189 FILLER_43_15
*21190 FILLER_43_161
*21191 FILLER_43_167
*21192 FILLER_43_169
*21193 FILLER_43_181
*21194 FILLER_43_193
*21195 FILLER_43_205
*21196 FILLER_43_217
*21197 FILLER_43_223
*21198 FILLER_43_225
*21199 FILLER_43_237
*21200 FILLER_43_249
*21201 FILLER_43_261
*21202 FILLER_43_27
*21203 FILLER_43_273
*21204 FILLER_43_279
*21205 FILLER_43_281
*21206 FILLER_43_293
*21207 FILLER_43_3
*21208 FILLER_43_305
*21209 FILLER_43_317
*21210 FILLER_43_329
*21211 FILLER_43_335
*21212 FILLER_43_337
*21213 FILLER_43_349
*21214 FILLER_43_361
*21215 FILLER_43_373
*21216 FILLER_43_385
*21217 FILLER_43_39
*21218 FILLER_43_391
*21219 FILLER_43_393
*21220 FILLER_43_405
*21221 FILLER_43_417
*21222 FILLER_43_429
*21223 FILLER_43_441
*21224 FILLER_43_447
*21225 FILLER_43_449
*21226 FILLER_43_461
*21227 FILLER_43_473
*21228 FILLER_43_485
*21229 FILLER_43_497
*21230 FILLER_43_503
*21231 FILLER_43_505
*21232 FILLER_43_51
*21233 FILLER_43_517
*21234 FILLER_43_529
*21235 FILLER_43_541
*21236 FILLER_43_55
*21237 FILLER_43_553
*21238 FILLER_43_559
*21239 FILLER_43_561
*21240 FILLER_43_57
*21241 FILLER_43_573
*21242 FILLER_43_585
*21243 FILLER_43_597
*21244 FILLER_43_609
*21245 FILLER_43_615
*21246 FILLER_43_617
*21247 FILLER_43_629
*21248 FILLER_43_641
*21249 FILLER_43_653
*21250 FILLER_43_665
*21251 FILLER_43_671
*21252 FILLER_43_673
*21253 FILLER_43_685
*21254 FILLER_43_69
*21255 FILLER_43_697
*21256 FILLER_43_709
*21257 FILLER_43_721
*21258 FILLER_43_727
*21259 FILLER_43_729
*21260 FILLER_43_741
*21261 FILLER_43_753
*21262 FILLER_43_765
*21263 FILLER_43_777
*21264 FILLER_43_783
*21265 FILLER_43_785
*21266 FILLER_43_797
*21267 FILLER_43_809
*21268 FILLER_43_81
*21269 FILLER_43_821
*21270 FILLER_43_833
*21271 FILLER_43_839
*21272 FILLER_43_841
*21273 FILLER_43_853
*21274 FILLER_43_865
*21275 FILLER_43_877
*21276 FILLER_43_889
*21277 FILLER_43_895
*21278 FILLER_43_897
*21279 FILLER_43_909
*21280 FILLER_43_921
*21281 FILLER_43_93
*21282 FILLER_43_933
*21283 FILLER_43_945
*21284 FILLER_43_951
*21285 FILLER_43_953
*21286 FILLER_43_965
*21287 FILLER_43_977
*21288 FILLER_43_989
*21289 FILLER_44_1005
*21290 FILLER_44_1017
*21291 FILLER_44_1029
*21292 FILLER_44_1035
*21293 FILLER_44_1037
*21294 FILLER_44_1049
*21295 FILLER_44_1061
*21296 FILLER_44_1073
*21297 FILLER_44_1085
*21298 FILLER_44_109
*21299 FILLER_44_1091
*21300 FILLER_44_1093
*21301 FILLER_44_1105
*21302 FILLER_44_1117
*21303 FILLER_44_1129
*21304 FILLER_44_1141
*21305 FILLER_44_1147
*21306 FILLER_44_1149
*21307 FILLER_44_1161
*21308 FILLER_44_1173
*21309 FILLER_44_1185
*21310 FILLER_44_1197
*21311 FILLER_44_1203
*21312 FILLER_44_1205
*21313 FILLER_44_121
*21314 FILLER_44_1217
*21315 FILLER_44_1229
*21316 FILLER_44_1241
*21317 FILLER_44_1253
*21318 FILLER_44_1259
*21319 FILLER_44_1261
*21320 FILLER_44_1273
*21321 FILLER_44_133
*21322 FILLER_44_139
*21323 FILLER_44_141
*21324 FILLER_44_153
*21325 FILLER_44_165
*21326 FILLER_44_177
*21327 FILLER_44_189
*21328 FILLER_44_19
*21329 FILLER_44_195
*21330 FILLER_44_197
*21331 FILLER_44_209
*21332 FILLER_44_221
*21333 FILLER_44_233
*21334 FILLER_44_245
*21335 FILLER_44_251
*21336 FILLER_44_253
*21337 FILLER_44_265
*21338 FILLER_44_27
*21339 FILLER_44_277
*21340 FILLER_44_289
*21341 FILLER_44_29
*21342 FILLER_44_3
*21343 FILLER_44_301
*21344 FILLER_44_307
*21345 FILLER_44_309
*21346 FILLER_44_321
*21347 FILLER_44_333
*21348 FILLER_44_345
*21349 FILLER_44_357
*21350 FILLER_44_363
*21351 FILLER_44_365
*21352 FILLER_44_377
*21353 FILLER_44_389
*21354 FILLER_44_401
*21355 FILLER_44_41
*21356 FILLER_44_413
*21357 FILLER_44_419
*21358 FILLER_44_421
*21359 FILLER_44_433
*21360 FILLER_44_445
*21361 FILLER_44_457
*21362 FILLER_44_469
*21363 FILLER_44_475
*21364 FILLER_44_477
*21365 FILLER_44_489
*21366 FILLER_44_501
*21367 FILLER_44_513
*21368 FILLER_44_525
*21369 FILLER_44_53
*21370 FILLER_44_531
*21371 FILLER_44_533
*21372 FILLER_44_545
*21373 FILLER_44_557
*21374 FILLER_44_569
*21375 FILLER_44_581
*21376 FILLER_44_587
*21377 FILLER_44_589
*21378 FILLER_44_601
*21379 FILLER_44_613
*21380 FILLER_44_625
*21381 FILLER_44_637
*21382 FILLER_44_643
*21383 FILLER_44_645
*21384 FILLER_44_65
*21385 FILLER_44_657
*21386 FILLER_44_669
*21387 FILLER_44_681
*21388 FILLER_44_693
*21389 FILLER_44_699
*21390 FILLER_44_7
*21391 FILLER_44_701
*21392 FILLER_44_713
*21393 FILLER_44_725
*21394 FILLER_44_737
*21395 FILLER_44_749
*21396 FILLER_44_755
*21397 FILLER_44_757
*21398 FILLER_44_769
*21399 FILLER_44_77
*21400 FILLER_44_781
*21401 FILLER_44_793
*21402 FILLER_44_805
*21403 FILLER_44_811
*21404 FILLER_44_813
*21405 FILLER_44_825
*21406 FILLER_44_83
*21407 FILLER_44_837
*21408 FILLER_44_849
*21409 FILLER_44_85
*21410 FILLER_44_861
*21411 FILLER_44_867
*21412 FILLER_44_869
*21413 FILLER_44_881
*21414 FILLER_44_893
*21415 FILLER_44_905
*21416 FILLER_44_917
*21417 FILLER_44_923
*21418 FILLER_44_925
*21419 FILLER_44_937
*21420 FILLER_44_949
*21421 FILLER_44_961
*21422 FILLER_44_97
*21423 FILLER_44_973
*21424 FILLER_44_979
*21425 FILLER_44_981
*21426 FILLER_44_993
*21427 FILLER_45_1001
*21428 FILLER_45_1007
*21429 FILLER_45_1009
*21430 FILLER_45_1021
*21431 FILLER_45_1033
*21432 FILLER_45_1045
*21433 FILLER_45_105
*21434 FILLER_45_1057
*21435 FILLER_45_1063
*21436 FILLER_45_1065
*21437 FILLER_45_1077
*21438 FILLER_45_1089
*21439 FILLER_45_1101
*21440 FILLER_45_111
*21441 FILLER_45_1113
*21442 FILLER_45_1119
*21443 FILLER_45_1121
*21444 FILLER_45_113
*21445 FILLER_45_1133
*21446 FILLER_45_1145
*21447 FILLER_45_1157
*21448 FILLER_45_1169
*21449 FILLER_45_1175
*21450 FILLER_45_1177
*21451 FILLER_45_1189
*21452 FILLER_45_1201
*21453 FILLER_45_1213
*21454 FILLER_45_1225
*21455 FILLER_45_1231
*21456 FILLER_45_1233
*21457 FILLER_45_1245
*21458 FILLER_45_125
*21459 FILLER_45_1257
*21460 FILLER_45_1269
*21461 FILLER_45_137
*21462 FILLER_45_149
*21463 FILLER_45_161
*21464 FILLER_45_167
*21465 FILLER_45_169
*21466 FILLER_45_181
*21467 FILLER_45_19
*21468 FILLER_45_193
*21469 FILLER_45_205
*21470 FILLER_45_217
*21471 FILLER_45_223
*21472 FILLER_45_225
*21473 FILLER_45_237
*21474 FILLER_45_249
*21475 FILLER_45_261
*21476 FILLER_45_273
*21477 FILLER_45_279
*21478 FILLER_45_281
*21479 FILLER_45_293
*21480 FILLER_45_3
*21481 FILLER_45_305
*21482 FILLER_45_31
*21483 FILLER_45_317
*21484 FILLER_45_329
*21485 FILLER_45_335
*21486 FILLER_45_337
*21487 FILLER_45_349
*21488 FILLER_45_361
*21489 FILLER_45_373
*21490 FILLER_45_385
*21491 FILLER_45_391
*21492 FILLER_45_393
*21493 FILLER_45_405
*21494 FILLER_45_417
*21495 FILLER_45_429
*21496 FILLER_45_43
*21497 FILLER_45_441
*21498 FILLER_45_447
*21499 FILLER_45_449
*21500 FILLER_45_461
*21501 FILLER_45_473
*21502 FILLER_45_485
*21503 FILLER_45_497
*21504 FILLER_45_503
*21505 FILLER_45_505
*21506 FILLER_45_517
*21507 FILLER_45_529
*21508 FILLER_45_541
*21509 FILLER_45_55
*21510 FILLER_45_553
*21511 FILLER_45_559
*21512 FILLER_45_561
*21513 FILLER_45_57
*21514 FILLER_45_573
*21515 FILLER_45_585
*21516 FILLER_45_597
*21517 FILLER_45_609
*21518 FILLER_45_615
*21519 FILLER_45_617
*21520 FILLER_45_629
*21521 FILLER_45_641
*21522 FILLER_45_653
*21523 FILLER_45_665
*21524 FILLER_45_671
*21525 FILLER_45_673
*21526 FILLER_45_685
*21527 FILLER_45_69
*21528 FILLER_45_697
*21529 FILLER_45_7
*21530 FILLER_45_709
*21531 FILLER_45_721
*21532 FILLER_45_727
*21533 FILLER_45_729
*21534 FILLER_45_741
*21535 FILLER_45_753
*21536 FILLER_45_765
*21537 FILLER_45_777
*21538 FILLER_45_783
*21539 FILLER_45_785
*21540 FILLER_45_797
*21541 FILLER_45_809
*21542 FILLER_45_81
*21543 FILLER_45_821
*21544 FILLER_45_833
*21545 FILLER_45_839
*21546 FILLER_45_841
*21547 FILLER_45_853
*21548 FILLER_45_865
*21549 FILLER_45_877
*21550 FILLER_45_889
*21551 FILLER_45_895
*21552 FILLER_45_897
*21553 FILLER_45_909
*21554 FILLER_45_921
*21555 FILLER_45_93
*21556 FILLER_45_933
*21557 FILLER_45_945
*21558 FILLER_45_951
*21559 FILLER_45_953
*21560 FILLER_45_965
*21561 FILLER_45_977
*21562 FILLER_45_989
*21563 FILLER_46_1005
*21564 FILLER_46_1017
*21565 FILLER_46_1029
*21566 FILLER_46_1035
*21567 FILLER_46_1037
*21568 FILLER_46_1049
*21569 FILLER_46_1061
*21570 FILLER_46_1073
*21571 FILLER_46_1085
*21572 FILLER_46_109
*21573 FILLER_46_1091
*21574 FILLER_46_1093
*21575 FILLER_46_1105
*21576 FILLER_46_1117
*21577 FILLER_46_1129
*21578 FILLER_46_1141
*21579 FILLER_46_1147
*21580 FILLER_46_1149
*21581 FILLER_46_1161
*21582 FILLER_46_1173
*21583 FILLER_46_1185
*21584 FILLER_46_1197
*21585 FILLER_46_1203
*21586 FILLER_46_1205
*21587 FILLER_46_121
*21588 FILLER_46_1217
*21589 FILLER_46_1229
*21590 FILLER_46_1241
*21591 FILLER_46_1253
*21592 FILLER_46_1259
*21593 FILLER_46_1261
*21594 FILLER_46_1273
*21595 FILLER_46_133
*21596 FILLER_46_139
*21597 FILLER_46_141
*21598 FILLER_46_153
*21599 FILLER_46_165
*21600 FILLER_46_177
*21601 FILLER_46_189
*21602 FILLER_46_19
*21603 FILLER_46_195
*21604 FILLER_46_197
*21605 FILLER_46_209
*21606 FILLER_46_221
*21607 FILLER_46_233
*21608 FILLER_46_245
*21609 FILLER_46_251
*21610 FILLER_46_253
*21611 FILLER_46_265
*21612 FILLER_46_27
*21613 FILLER_46_277
*21614 FILLER_46_289
*21615 FILLER_46_29
*21616 FILLER_46_3
*21617 FILLER_46_301
*21618 FILLER_46_307
*21619 FILLER_46_309
*21620 FILLER_46_321
*21621 FILLER_46_333
*21622 FILLER_46_345
*21623 FILLER_46_357
*21624 FILLER_46_363
*21625 FILLER_46_365
*21626 FILLER_46_377
*21627 FILLER_46_389
*21628 FILLER_46_401
*21629 FILLER_46_41
*21630 FILLER_46_413
*21631 FILLER_46_419
*21632 FILLER_46_421
*21633 FILLER_46_433
*21634 FILLER_46_445
*21635 FILLER_46_457
*21636 FILLER_46_469
*21637 FILLER_46_475
*21638 FILLER_46_477
*21639 FILLER_46_489
*21640 FILLER_46_501
*21641 FILLER_46_513
*21642 FILLER_46_525
*21643 FILLER_46_53
*21644 FILLER_46_531
*21645 FILLER_46_533
*21646 FILLER_46_545
*21647 FILLER_46_557
*21648 FILLER_46_569
*21649 FILLER_46_581
*21650 FILLER_46_587
*21651 FILLER_46_589
*21652 FILLER_46_601
*21653 FILLER_46_613
*21654 FILLER_46_625
*21655 FILLER_46_637
*21656 FILLER_46_643
*21657 FILLER_46_645
*21658 FILLER_46_65
*21659 FILLER_46_657
*21660 FILLER_46_669
*21661 FILLER_46_681
*21662 FILLER_46_693
*21663 FILLER_46_699
*21664 FILLER_46_7
*21665 FILLER_46_701
*21666 FILLER_46_713
*21667 FILLER_46_725
*21668 FILLER_46_737
*21669 FILLER_46_749
*21670 FILLER_46_755
*21671 FILLER_46_757
*21672 FILLER_46_769
*21673 FILLER_46_77
*21674 FILLER_46_781
*21675 FILLER_46_793
*21676 FILLER_46_805
*21677 FILLER_46_811
*21678 FILLER_46_813
*21679 FILLER_46_825
*21680 FILLER_46_83
*21681 FILLER_46_837
*21682 FILLER_46_849
*21683 FILLER_46_85
*21684 FILLER_46_861
*21685 FILLER_46_867
*21686 FILLER_46_869
*21687 FILLER_46_881
*21688 FILLER_46_893
*21689 FILLER_46_905
*21690 FILLER_46_917
*21691 FILLER_46_923
*21692 FILLER_46_925
*21693 FILLER_46_937
*21694 FILLER_46_949
*21695 FILLER_46_961
*21696 FILLER_46_97
*21697 FILLER_46_973
*21698 FILLER_46_979
*21699 FILLER_46_981
*21700 FILLER_46_993
*21701 FILLER_47_1001
*21702 FILLER_47_1007
*21703 FILLER_47_1009
*21704 FILLER_47_1021
*21705 FILLER_47_1033
*21706 FILLER_47_1045
*21707 FILLER_47_105
*21708 FILLER_47_1057
*21709 FILLER_47_1063
*21710 FILLER_47_1065
*21711 FILLER_47_1077
*21712 FILLER_47_1089
*21713 FILLER_47_1101
*21714 FILLER_47_111
*21715 FILLER_47_1113
*21716 FILLER_47_1119
*21717 FILLER_47_1121
*21718 FILLER_47_113
*21719 FILLER_47_1133
*21720 FILLER_47_1145
*21721 FILLER_47_1157
*21722 FILLER_47_1169
*21723 FILLER_47_1175
*21724 FILLER_47_1177
*21725 FILLER_47_1189
*21726 FILLER_47_1201
*21727 FILLER_47_1213
*21728 FILLER_47_1225
*21729 FILLER_47_1231
*21730 FILLER_47_1233
*21731 FILLER_47_1245
*21732 FILLER_47_125
*21733 FILLER_47_1257
*21734 FILLER_47_1269
*21735 FILLER_47_137
*21736 FILLER_47_149
*21737 FILLER_47_161
*21738 FILLER_47_167
*21739 FILLER_47_169
*21740 FILLER_47_181
*21741 FILLER_47_19
*21742 FILLER_47_193
*21743 FILLER_47_205
*21744 FILLER_47_217
*21745 FILLER_47_223
*21746 FILLER_47_225
*21747 FILLER_47_237
*21748 FILLER_47_249
*21749 FILLER_47_261
*21750 FILLER_47_273
*21751 FILLER_47_279
*21752 FILLER_47_281
*21753 FILLER_47_293
*21754 FILLER_47_3
*21755 FILLER_47_305
*21756 FILLER_47_31
*21757 FILLER_47_317
*21758 FILLER_47_329
*21759 FILLER_47_335
*21760 FILLER_47_337
*21761 FILLER_47_349
*21762 FILLER_47_361
*21763 FILLER_47_373
*21764 FILLER_47_385
*21765 FILLER_47_391
*21766 FILLER_47_393
*21767 FILLER_47_405
*21768 FILLER_47_417
*21769 FILLER_47_429
*21770 FILLER_47_43
*21771 FILLER_47_441
*21772 FILLER_47_447
*21773 FILLER_47_449
*21774 FILLER_47_461
*21775 FILLER_47_473
*21776 FILLER_47_485
*21777 FILLER_47_497
*21778 FILLER_47_503
*21779 FILLER_47_505
*21780 FILLER_47_517
*21781 FILLER_47_529
*21782 FILLER_47_541
*21783 FILLER_47_55
*21784 FILLER_47_553
*21785 FILLER_47_559
*21786 FILLER_47_561
*21787 FILLER_47_57
*21788 FILLER_47_573
*21789 FILLER_47_585
*21790 FILLER_47_597
*21791 FILLER_47_609
*21792 FILLER_47_615
*21793 FILLER_47_617
*21794 FILLER_47_629
*21795 FILLER_47_641
*21796 FILLER_47_653
*21797 FILLER_47_665
*21798 FILLER_47_671
*21799 FILLER_47_673
*21800 FILLER_47_685
*21801 FILLER_47_69
*21802 FILLER_47_697
*21803 FILLER_47_7
*21804 FILLER_47_709
*21805 FILLER_47_721
*21806 FILLER_47_727
*21807 FILLER_47_729
*21808 FILLER_47_741
*21809 FILLER_47_753
*21810 FILLER_47_765
*21811 FILLER_47_777
*21812 FILLER_47_783
*21813 FILLER_47_785
*21814 FILLER_47_797
*21815 FILLER_47_809
*21816 FILLER_47_81
*21817 FILLER_47_821
*21818 FILLER_47_833
*21819 FILLER_47_839
*21820 FILLER_47_841
*21821 FILLER_47_853
*21822 FILLER_47_865
*21823 FILLER_47_877
*21824 FILLER_47_889
*21825 FILLER_47_895
*21826 FILLER_47_897
*21827 FILLER_47_909
*21828 FILLER_47_921
*21829 FILLER_47_93
*21830 FILLER_47_933
*21831 FILLER_47_945
*21832 FILLER_47_951
*21833 FILLER_47_953
*21834 FILLER_47_965
*21835 FILLER_47_977
*21836 FILLER_47_989
*21837 FILLER_48_1005
*21838 FILLER_48_1017
*21839 FILLER_48_1029
*21840 FILLER_48_1035
*21841 FILLER_48_1037
*21842 FILLER_48_1049
*21843 FILLER_48_1061
*21844 FILLER_48_1073
*21845 FILLER_48_1085
*21846 FILLER_48_109
*21847 FILLER_48_1091
*21848 FILLER_48_1093
*21849 FILLER_48_1105
*21850 FILLER_48_1117
*21851 FILLER_48_1129
*21852 FILLER_48_1141
*21853 FILLER_48_1147
*21854 FILLER_48_1149
*21855 FILLER_48_1161
*21856 FILLER_48_1173
*21857 FILLER_48_1185
*21858 FILLER_48_1197
*21859 FILLER_48_1203
*21860 FILLER_48_1205
*21861 FILLER_48_121
*21862 FILLER_48_1217
*21863 FILLER_48_1229
*21864 FILLER_48_1241
*21865 FILLER_48_1253
*21866 FILLER_48_1259
*21867 FILLER_48_1261
*21868 FILLER_48_1273
*21869 FILLER_48_133
*21870 FILLER_48_139
*21871 FILLER_48_141
*21872 FILLER_48_15
*21873 FILLER_48_153
*21874 FILLER_48_165
*21875 FILLER_48_177
*21876 FILLER_48_189
*21877 FILLER_48_195
*21878 FILLER_48_197
*21879 FILLER_48_209
*21880 FILLER_48_221
*21881 FILLER_48_233
*21882 FILLER_48_245
*21883 FILLER_48_251
*21884 FILLER_48_253
*21885 FILLER_48_265
*21886 FILLER_48_27
*21887 FILLER_48_277
*21888 FILLER_48_289
*21889 FILLER_48_29
*21890 FILLER_48_3
*21891 FILLER_48_301
*21892 FILLER_48_307
*21893 FILLER_48_309
*21894 FILLER_48_321
*21895 FILLER_48_333
*21896 FILLER_48_345
*21897 FILLER_48_357
*21898 FILLER_48_363
*21899 FILLER_48_365
*21900 FILLER_48_377
*21901 FILLER_48_389
*21902 FILLER_48_401
*21903 FILLER_48_41
*21904 FILLER_48_413
*21905 FILLER_48_419
*21906 FILLER_48_421
*21907 FILLER_48_433
*21908 FILLER_48_445
*21909 FILLER_48_457
*21910 FILLER_48_469
*21911 FILLER_48_475
*21912 FILLER_48_477
*21913 FILLER_48_489
*21914 FILLER_48_501
*21915 FILLER_48_513
*21916 FILLER_48_525
*21917 FILLER_48_53
*21918 FILLER_48_531
*21919 FILLER_48_533
*21920 FILLER_48_545
*21921 FILLER_48_557
*21922 FILLER_48_569
*21923 FILLER_48_581
*21924 FILLER_48_587
*21925 FILLER_48_589
*21926 FILLER_48_601
*21927 FILLER_48_613
*21928 FILLER_48_625
*21929 FILLER_48_637
*21930 FILLER_48_643
*21931 FILLER_48_645
*21932 FILLER_48_65
*21933 FILLER_48_657
*21934 FILLER_48_669
*21935 FILLER_48_681
*21936 FILLER_48_693
*21937 FILLER_48_699
*21938 FILLER_48_701
*21939 FILLER_48_713
*21940 FILLER_48_725
*21941 FILLER_48_737
*21942 FILLER_48_749
*21943 FILLER_48_755
*21944 FILLER_48_757
*21945 FILLER_48_769
*21946 FILLER_48_77
*21947 FILLER_48_781
*21948 FILLER_48_793
*21949 FILLER_48_805
*21950 FILLER_48_811
*21951 FILLER_48_813
*21952 FILLER_48_825
*21953 FILLER_48_83
*21954 FILLER_48_837
*21955 FILLER_48_849
*21956 FILLER_48_85
*21957 FILLER_48_861
*21958 FILLER_48_867
*21959 FILLER_48_869
*21960 FILLER_48_881
*21961 FILLER_48_893
*21962 FILLER_48_905
*21963 FILLER_48_917
*21964 FILLER_48_923
*21965 FILLER_48_925
*21966 FILLER_48_937
*21967 FILLER_48_949
*21968 FILLER_48_961
*21969 FILLER_48_97
*21970 FILLER_48_973
*21971 FILLER_48_979
*21972 FILLER_48_981
*21973 FILLER_48_993
*21974 FILLER_49_1001
*21975 FILLER_49_1007
*21976 FILLER_49_1009
*21977 FILLER_49_1021
*21978 FILLER_49_1033
*21979 FILLER_49_1045
*21980 FILLER_49_105
*21981 FILLER_49_1057
*21982 FILLER_49_1063
*21983 FILLER_49_1065
*21984 FILLER_49_1077
*21985 FILLER_49_1089
*21986 FILLER_49_1101
*21987 FILLER_49_111
*21988 FILLER_49_1113
*21989 FILLER_49_1119
*21990 FILLER_49_1121
*21991 FILLER_49_113
*21992 FILLER_49_1133
*21993 FILLER_49_1145
*21994 FILLER_49_1157
*21995 FILLER_49_1169
*21996 FILLER_49_1175
*21997 FILLER_49_1177
*21998 FILLER_49_1189
*21999 FILLER_49_1201
*22000 FILLER_49_1213
*22001 FILLER_49_1225
*22002 FILLER_49_1231
*22003 FILLER_49_1233
*22004 FILLER_49_1245
*22005 FILLER_49_125
*22006 FILLER_49_1257
*22007 FILLER_49_1269
*22008 FILLER_49_137
*22009 FILLER_49_149
*22010 FILLER_49_161
*22011 FILLER_49_167
*22012 FILLER_49_169
*22013 FILLER_49_181
*22014 FILLER_49_19
*22015 FILLER_49_193
*22016 FILLER_49_205
*22017 FILLER_49_217
*22018 FILLER_49_223
*22019 FILLER_49_225
*22020 FILLER_49_237
*22021 FILLER_49_249
*22022 FILLER_49_261
*22023 FILLER_49_273
*22024 FILLER_49_279
*22025 FILLER_49_281
*22026 FILLER_49_293
*22027 FILLER_49_3
*22028 FILLER_49_305
*22029 FILLER_49_31
*22030 FILLER_49_317
*22031 FILLER_49_329
*22032 FILLER_49_335
*22033 FILLER_49_337
*22034 FILLER_49_349
*22035 FILLER_49_361
*22036 FILLER_49_373
*22037 FILLER_49_385
*22038 FILLER_49_391
*22039 FILLER_49_393
*22040 FILLER_49_405
*22041 FILLER_49_417
*22042 FILLER_49_429
*22043 FILLER_49_43
*22044 FILLER_49_441
*22045 FILLER_49_447
*22046 FILLER_49_449
*22047 FILLER_49_461
*22048 FILLER_49_473
*22049 FILLER_49_485
*22050 FILLER_49_497
*22051 FILLER_49_503
*22052 FILLER_49_505
*22053 FILLER_49_517
*22054 FILLER_49_529
*22055 FILLER_49_541
*22056 FILLER_49_55
*22057 FILLER_49_553
*22058 FILLER_49_559
*22059 FILLER_49_561
*22060 FILLER_49_57
*22061 FILLER_49_573
*22062 FILLER_49_585
*22063 FILLER_49_597
*22064 FILLER_49_609
*22065 FILLER_49_615
*22066 FILLER_49_617
*22067 FILLER_49_629
*22068 FILLER_49_641
*22069 FILLER_49_653
*22070 FILLER_49_665
*22071 FILLER_49_671
*22072 FILLER_49_673
*22073 FILLER_49_685
*22074 FILLER_49_69
*22075 FILLER_49_697
*22076 FILLER_49_7
*22077 FILLER_49_709
*22078 FILLER_49_721
*22079 FILLER_49_727
*22080 FILLER_49_729
*22081 FILLER_49_741
*22082 FILLER_49_753
*22083 FILLER_49_765
*22084 FILLER_49_777
*22085 FILLER_49_783
*22086 FILLER_49_785
*22087 FILLER_49_797
*22088 FILLER_49_809
*22089 FILLER_49_81
*22090 FILLER_49_821
*22091 FILLER_49_833
*22092 FILLER_49_839
*22093 FILLER_49_841
*22094 FILLER_49_853
*22095 FILLER_49_865
*22096 FILLER_49_877
*22097 FILLER_49_889
*22098 FILLER_49_895
*22099 FILLER_49_897
*22100 FILLER_49_909
*22101 FILLER_49_921
*22102 FILLER_49_93
*22103 FILLER_49_933
*22104 FILLER_49_945
*22105 FILLER_49_951
*22106 FILLER_49_953
*22107 FILLER_49_965
*22108 FILLER_49_977
*22109 FILLER_49_989
*22110 FILLER_4_1005
*22111 FILLER_4_1017
*22112 FILLER_4_1029
*22113 FILLER_4_1035
*22114 FILLER_4_1037
*22115 FILLER_4_1049
*22116 FILLER_4_1061
*22117 FILLER_4_1073
*22118 FILLER_4_1085
*22119 FILLER_4_109
*22120 FILLER_4_1091
*22121 FILLER_4_1093
*22122 FILLER_4_1105
*22123 FILLER_4_1117
*22124 FILLER_4_1129
*22125 FILLER_4_1141
*22126 FILLER_4_1147
*22127 FILLER_4_1149
*22128 FILLER_4_1161
*22129 FILLER_4_1173
*22130 FILLER_4_1185
*22131 FILLER_4_1197
*22132 FILLER_4_1203
*22133 FILLER_4_1205
*22134 FILLER_4_121
*22135 FILLER_4_1217
*22136 FILLER_4_1229
*22137 FILLER_4_1241
*22138 FILLER_4_1253
*22139 FILLER_4_1259
*22140 FILLER_4_1261
*22141 FILLER_4_1273
*22142 FILLER_4_133
*22143 FILLER_4_139
*22144 FILLER_4_141
*22145 FILLER_4_15
*22146 FILLER_4_153
*22147 FILLER_4_165
*22148 FILLER_4_177
*22149 FILLER_4_189
*22150 FILLER_4_195
*22151 FILLER_4_197
*22152 FILLER_4_209
*22153 FILLER_4_221
*22154 FILLER_4_233
*22155 FILLER_4_245
*22156 FILLER_4_251
*22157 FILLER_4_253
*22158 FILLER_4_265
*22159 FILLER_4_27
*22160 FILLER_4_277
*22161 FILLER_4_289
*22162 FILLER_4_29
*22163 FILLER_4_3
*22164 FILLER_4_301
*22165 FILLER_4_307
*22166 FILLER_4_309
*22167 FILLER_4_321
*22168 FILLER_4_333
*22169 FILLER_4_345
*22170 FILLER_4_357
*22171 FILLER_4_363
*22172 FILLER_4_365
*22173 FILLER_4_377
*22174 FILLER_4_389
*22175 FILLER_4_401
*22176 FILLER_4_41
*22177 FILLER_4_413
*22178 FILLER_4_419
*22179 FILLER_4_421
*22180 FILLER_4_433
*22181 FILLER_4_445
*22182 FILLER_4_457
*22183 FILLER_4_469
*22184 FILLER_4_475
*22185 FILLER_4_477
*22186 FILLER_4_489
*22187 FILLER_4_501
*22188 FILLER_4_513
*22189 FILLER_4_525
*22190 FILLER_4_53
*22191 FILLER_4_531
*22192 FILLER_4_533
*22193 FILLER_4_545
*22194 FILLER_4_557
*22195 FILLER_4_569
*22196 FILLER_4_581
*22197 FILLER_4_587
*22198 FILLER_4_589
*22199 FILLER_4_601
*22200 FILLER_4_613
*22201 FILLER_4_625
*22202 FILLER_4_637
*22203 FILLER_4_643
*22204 FILLER_4_645
*22205 FILLER_4_65
*22206 FILLER_4_657
*22207 FILLER_4_669
*22208 FILLER_4_681
*22209 FILLER_4_693
*22210 FILLER_4_699
*22211 FILLER_4_701
*22212 FILLER_4_713
*22213 FILLER_4_725
*22214 FILLER_4_737
*22215 FILLER_4_749
*22216 FILLER_4_755
*22217 FILLER_4_757
*22218 FILLER_4_769
*22219 FILLER_4_77
*22220 FILLER_4_781
*22221 FILLER_4_793
*22222 FILLER_4_805
*22223 FILLER_4_811
*22224 FILLER_4_813
*22225 FILLER_4_825
*22226 FILLER_4_83
*22227 FILLER_4_837
*22228 FILLER_4_849
*22229 FILLER_4_85
*22230 FILLER_4_861
*22231 FILLER_4_867
*22232 FILLER_4_869
*22233 FILLER_4_881
*22234 FILLER_4_893
*22235 FILLER_4_905
*22236 FILLER_4_917
*22237 FILLER_4_923
*22238 FILLER_4_925
*22239 FILLER_4_937
*22240 FILLER_4_949
*22241 FILLER_4_961
*22242 FILLER_4_97
*22243 FILLER_4_973
*22244 FILLER_4_979
*22245 FILLER_4_981
*22246 FILLER_4_993
*22247 FILLER_50_1005
*22248 FILLER_50_1017
*22249 FILLER_50_1029
*22250 FILLER_50_1035
*22251 FILLER_50_1037
*22252 FILLER_50_1049
*22253 FILLER_50_1061
*22254 FILLER_50_1073
*22255 FILLER_50_1085
*22256 FILLER_50_109
*22257 FILLER_50_1091
*22258 FILLER_50_1093
*22259 FILLER_50_1105
*22260 FILLER_50_1117
*22261 FILLER_50_1129
*22262 FILLER_50_1141
*22263 FILLER_50_1147
*22264 FILLER_50_1149
*22265 FILLER_50_1161
*22266 FILLER_50_1173
*22267 FILLER_50_1185
*22268 FILLER_50_1197
*22269 FILLER_50_1203
*22270 FILLER_50_1205
*22271 FILLER_50_121
*22272 FILLER_50_1217
*22273 FILLER_50_1229
*22274 FILLER_50_1241
*22275 FILLER_50_1253
*22276 FILLER_50_1259
*22277 FILLER_50_1261
*22278 FILLER_50_1273
*22279 FILLER_50_133
*22280 FILLER_50_139
*22281 FILLER_50_141
*22282 FILLER_50_153
*22283 FILLER_50_165
*22284 FILLER_50_177
*22285 FILLER_50_189
*22286 FILLER_50_19
*22287 FILLER_50_195
*22288 FILLER_50_197
*22289 FILLER_50_209
*22290 FILLER_50_221
*22291 FILLER_50_233
*22292 FILLER_50_245
*22293 FILLER_50_251
*22294 FILLER_50_253
*22295 FILLER_50_265
*22296 FILLER_50_27
*22297 FILLER_50_277
*22298 FILLER_50_289
*22299 FILLER_50_29
*22300 FILLER_50_3
*22301 FILLER_50_301
*22302 FILLER_50_307
*22303 FILLER_50_309
*22304 FILLER_50_321
*22305 FILLER_50_333
*22306 FILLER_50_345
*22307 FILLER_50_357
*22308 FILLER_50_363
*22309 FILLER_50_365
*22310 FILLER_50_377
*22311 FILLER_50_389
*22312 FILLER_50_401
*22313 FILLER_50_41
*22314 FILLER_50_413
*22315 FILLER_50_419
*22316 FILLER_50_421
*22317 FILLER_50_433
*22318 FILLER_50_445
*22319 FILLER_50_457
*22320 FILLER_50_469
*22321 FILLER_50_475
*22322 FILLER_50_477
*22323 FILLER_50_489
*22324 FILLER_50_501
*22325 FILLER_50_513
*22326 FILLER_50_525
*22327 FILLER_50_53
*22328 FILLER_50_531
*22329 FILLER_50_533
*22330 FILLER_50_545
*22331 FILLER_50_557
*22332 FILLER_50_569
*22333 FILLER_50_581
*22334 FILLER_50_587
*22335 FILLER_50_589
*22336 FILLER_50_601
*22337 FILLER_50_613
*22338 FILLER_50_625
*22339 FILLER_50_637
*22340 FILLER_50_643
*22341 FILLER_50_645
*22342 FILLER_50_65
*22343 FILLER_50_657
*22344 FILLER_50_669
*22345 FILLER_50_681
*22346 FILLER_50_693
*22347 FILLER_50_699
*22348 FILLER_50_7
*22349 FILLER_50_701
*22350 FILLER_50_713
*22351 FILLER_50_725
*22352 FILLER_50_737
*22353 FILLER_50_749
*22354 FILLER_50_755
*22355 FILLER_50_757
*22356 FILLER_50_769
*22357 FILLER_50_77
*22358 FILLER_50_781
*22359 FILLER_50_793
*22360 FILLER_50_805
*22361 FILLER_50_811
*22362 FILLER_50_813
*22363 FILLER_50_825
*22364 FILLER_50_83
*22365 FILLER_50_837
*22366 FILLER_50_849
*22367 FILLER_50_85
*22368 FILLER_50_861
*22369 FILLER_50_867
*22370 FILLER_50_869
*22371 FILLER_50_881
*22372 FILLER_50_893
*22373 FILLER_50_905
*22374 FILLER_50_917
*22375 FILLER_50_923
*22376 FILLER_50_925
*22377 FILLER_50_937
*22378 FILLER_50_949
*22379 FILLER_50_961
*22380 FILLER_50_97
*22381 FILLER_50_973
*22382 FILLER_50_979
*22383 FILLER_50_981
*22384 FILLER_50_993
*22385 FILLER_51_1001
*22386 FILLER_51_1007
*22387 FILLER_51_1009
*22388 FILLER_51_1021
*22389 FILLER_51_1033
*22390 FILLER_51_1045
*22391 FILLER_51_105
*22392 FILLER_51_1057
*22393 FILLER_51_1063
*22394 FILLER_51_1065
*22395 FILLER_51_1077
*22396 FILLER_51_1089
*22397 FILLER_51_1101
*22398 FILLER_51_111
*22399 FILLER_51_1113
*22400 FILLER_51_1119
*22401 FILLER_51_1121
*22402 FILLER_51_113
*22403 FILLER_51_1133
*22404 FILLER_51_1145
*22405 FILLER_51_1157
*22406 FILLER_51_1169
*22407 FILLER_51_1175
*22408 FILLER_51_1177
*22409 FILLER_51_1189
*22410 FILLER_51_1201
*22411 FILLER_51_1213
*22412 FILLER_51_1225
*22413 FILLER_51_1231
*22414 FILLER_51_1233
*22415 FILLER_51_1245
*22416 FILLER_51_125
*22417 FILLER_51_1257
*22418 FILLER_51_1269
*22419 FILLER_51_137
*22420 FILLER_51_149
*22421 FILLER_51_161
*22422 FILLER_51_167
*22423 FILLER_51_169
*22424 FILLER_51_181
*22425 FILLER_51_19
*22426 FILLER_51_193
*22427 FILLER_51_205
*22428 FILLER_51_217
*22429 FILLER_51_223
*22430 FILLER_51_225
*22431 FILLER_51_237
*22432 FILLER_51_249
*22433 FILLER_51_261
*22434 FILLER_51_273
*22435 FILLER_51_279
*22436 FILLER_51_281
*22437 FILLER_51_293
*22438 FILLER_51_3
*22439 FILLER_51_305
*22440 FILLER_51_31
*22441 FILLER_51_317
*22442 FILLER_51_329
*22443 FILLER_51_335
*22444 FILLER_51_337
*22445 FILLER_51_349
*22446 FILLER_51_361
*22447 FILLER_51_373
*22448 FILLER_51_385
*22449 FILLER_51_391
*22450 FILLER_51_393
*22451 FILLER_51_405
*22452 FILLER_51_417
*22453 FILLER_51_429
*22454 FILLER_51_43
*22455 FILLER_51_441
*22456 FILLER_51_447
*22457 FILLER_51_449
*22458 FILLER_51_461
*22459 FILLER_51_473
*22460 FILLER_51_485
*22461 FILLER_51_497
*22462 FILLER_51_503
*22463 FILLER_51_505
*22464 FILLER_51_517
*22465 FILLER_51_529
*22466 FILLER_51_541
*22467 FILLER_51_55
*22468 FILLER_51_553
*22469 FILLER_51_559
*22470 FILLER_51_561
*22471 FILLER_51_57
*22472 FILLER_51_573
*22473 FILLER_51_585
*22474 FILLER_51_597
*22475 FILLER_51_609
*22476 FILLER_51_615
*22477 FILLER_51_617
*22478 FILLER_51_629
*22479 FILLER_51_641
*22480 FILLER_51_653
*22481 FILLER_51_665
*22482 FILLER_51_671
*22483 FILLER_51_673
*22484 FILLER_51_685
*22485 FILLER_51_69
*22486 FILLER_51_697
*22487 FILLER_51_7
*22488 FILLER_51_709
*22489 FILLER_51_721
*22490 FILLER_51_727
*22491 FILLER_51_729
*22492 FILLER_51_741
*22493 FILLER_51_753
*22494 FILLER_51_765
*22495 FILLER_51_777
*22496 FILLER_51_783
*22497 FILLER_51_785
*22498 FILLER_51_797
*22499 FILLER_51_809
*22500 FILLER_51_81
*22501 FILLER_51_821
*22502 FILLER_51_833
*22503 FILLER_51_839
*22504 FILLER_51_841
*22505 FILLER_51_853
*22506 FILLER_51_865
*22507 FILLER_51_877
*22508 FILLER_51_889
*22509 FILLER_51_895
*22510 FILLER_51_897
*22511 FILLER_51_909
*22512 FILLER_51_921
*22513 FILLER_51_93
*22514 FILLER_51_933
*22515 FILLER_51_945
*22516 FILLER_51_951
*22517 FILLER_51_953
*22518 FILLER_51_965
*22519 FILLER_51_977
*22520 FILLER_51_989
*22521 FILLER_52_1005
*22522 FILLER_52_1017
*22523 FILLER_52_1029
*22524 FILLER_52_1035
*22525 FILLER_52_1037
*22526 FILLER_52_1049
*22527 FILLER_52_1061
*22528 FILLER_52_1073
*22529 FILLER_52_1085
*22530 FILLER_52_109
*22531 FILLER_52_1091
*22532 FILLER_52_1093
*22533 FILLER_52_1105
*22534 FILLER_52_1117
*22535 FILLER_52_1129
*22536 FILLER_52_1141
*22537 FILLER_52_1147
*22538 FILLER_52_1149
*22539 FILLER_52_1161
*22540 FILLER_52_1173
*22541 FILLER_52_1185
*22542 FILLER_52_1197
*22543 FILLER_52_1203
*22544 FILLER_52_1205
*22545 FILLER_52_121
*22546 FILLER_52_1217
*22547 FILLER_52_1229
*22548 FILLER_52_1241
*22549 FILLER_52_1253
*22550 FILLER_52_1259
*22551 FILLER_52_1261
*22552 FILLER_52_1276
*22553 FILLER_52_133
*22554 FILLER_52_139
*22555 FILLER_52_141
*22556 FILLER_52_153
*22557 FILLER_52_165
*22558 FILLER_52_177
*22559 FILLER_52_189
*22560 FILLER_52_19
*22561 FILLER_52_195
*22562 FILLER_52_197
*22563 FILLER_52_209
*22564 FILLER_52_221
*22565 FILLER_52_233
*22566 FILLER_52_245
*22567 FILLER_52_251
*22568 FILLER_52_253
*22569 FILLER_52_265
*22570 FILLER_52_27
*22571 FILLER_52_277
*22572 FILLER_52_289
*22573 FILLER_52_29
*22574 FILLER_52_3
*22575 FILLER_52_301
*22576 FILLER_52_307
*22577 FILLER_52_309
*22578 FILLER_52_321
*22579 FILLER_52_333
*22580 FILLER_52_345
*22581 FILLER_52_357
*22582 FILLER_52_363
*22583 FILLER_52_365
*22584 FILLER_52_377
*22585 FILLER_52_389
*22586 FILLER_52_401
*22587 FILLER_52_41
*22588 FILLER_52_413
*22589 FILLER_52_419
*22590 FILLER_52_421
*22591 FILLER_52_433
*22592 FILLER_52_445
*22593 FILLER_52_457
*22594 FILLER_52_469
*22595 FILLER_52_475
*22596 FILLER_52_477
*22597 FILLER_52_489
*22598 FILLER_52_501
*22599 FILLER_52_513
*22600 FILLER_52_525
*22601 FILLER_52_53
*22602 FILLER_52_531
*22603 FILLER_52_533
*22604 FILLER_52_545
*22605 FILLER_52_557
*22606 FILLER_52_569
*22607 FILLER_52_581
*22608 FILLER_52_587
*22609 FILLER_52_589
*22610 FILLER_52_601
*22611 FILLER_52_613
*22612 FILLER_52_625
*22613 FILLER_52_637
*22614 FILLER_52_643
*22615 FILLER_52_645
*22616 FILLER_52_65
*22617 FILLER_52_657
*22618 FILLER_52_669
*22619 FILLER_52_681
*22620 FILLER_52_693
*22621 FILLER_52_699
*22622 FILLER_52_7
*22623 FILLER_52_701
*22624 FILLER_52_713
*22625 FILLER_52_725
*22626 FILLER_52_737
*22627 FILLER_52_749
*22628 FILLER_52_755
*22629 FILLER_52_757
*22630 FILLER_52_769
*22631 FILLER_52_77
*22632 FILLER_52_781
*22633 FILLER_52_793
*22634 FILLER_52_805
*22635 FILLER_52_811
*22636 FILLER_52_813
*22637 FILLER_52_825
*22638 FILLER_52_83
*22639 FILLER_52_837
*22640 FILLER_52_849
*22641 FILLER_52_85
*22642 FILLER_52_861
*22643 FILLER_52_867
*22644 FILLER_52_869
*22645 FILLER_52_881
*22646 FILLER_52_893
*22647 FILLER_52_905
*22648 FILLER_52_917
*22649 FILLER_52_923
*22650 FILLER_52_925
*22651 FILLER_52_937
*22652 FILLER_52_949
*22653 FILLER_52_961
*22654 FILLER_52_97
*22655 FILLER_52_973
*22656 FILLER_52_979
*22657 FILLER_52_981
*22658 FILLER_52_993
*22659 FILLER_53_1001
*22660 FILLER_53_1007
*22661 FILLER_53_1009
*22662 FILLER_53_1021
*22663 FILLER_53_1033
*22664 FILLER_53_1045
*22665 FILLER_53_105
*22666 FILLER_53_1057
*22667 FILLER_53_1063
*22668 FILLER_53_1065
*22669 FILLER_53_1077
*22670 FILLER_53_1089
*22671 FILLER_53_1101
*22672 FILLER_53_111
*22673 FILLER_53_1113
*22674 FILLER_53_1119
*22675 FILLER_53_1121
*22676 FILLER_53_113
*22677 FILLER_53_1133
*22678 FILLER_53_1145
*22679 FILLER_53_1157
*22680 FILLER_53_1169
*22681 FILLER_53_1175
*22682 FILLER_53_1177
*22683 FILLER_53_1189
*22684 FILLER_53_1201
*22685 FILLER_53_1213
*22686 FILLER_53_1225
*22687 FILLER_53_1231
*22688 FILLER_53_1233
*22689 FILLER_53_1245
*22690 FILLER_53_125
*22691 FILLER_53_1257
*22692 FILLER_53_1269
*22693 FILLER_53_137
*22694 FILLER_53_149
*22695 FILLER_53_15
*22696 FILLER_53_161
*22697 FILLER_53_167
*22698 FILLER_53_169
*22699 FILLER_53_181
*22700 FILLER_53_193
*22701 FILLER_53_205
*22702 FILLER_53_217
*22703 FILLER_53_223
*22704 FILLER_53_225
*22705 FILLER_53_237
*22706 FILLER_53_249
*22707 FILLER_53_261
*22708 FILLER_53_27
*22709 FILLER_53_273
*22710 FILLER_53_279
*22711 FILLER_53_281
*22712 FILLER_53_293
*22713 FILLER_53_3
*22714 FILLER_53_305
*22715 FILLER_53_317
*22716 FILLER_53_329
*22717 FILLER_53_335
*22718 FILLER_53_337
*22719 FILLER_53_349
*22720 FILLER_53_361
*22721 FILLER_53_373
*22722 FILLER_53_385
*22723 FILLER_53_39
*22724 FILLER_53_391
*22725 FILLER_53_393
*22726 FILLER_53_405
*22727 FILLER_53_417
*22728 FILLER_53_429
*22729 FILLER_53_441
*22730 FILLER_53_447
*22731 FILLER_53_449
*22732 FILLER_53_461
*22733 FILLER_53_473
*22734 FILLER_53_485
*22735 FILLER_53_497
*22736 FILLER_53_503
*22737 FILLER_53_505
*22738 FILLER_53_51
*22739 FILLER_53_517
*22740 FILLER_53_529
*22741 FILLER_53_541
*22742 FILLER_53_55
*22743 FILLER_53_553
*22744 FILLER_53_559
*22745 FILLER_53_561
*22746 FILLER_53_57
*22747 FILLER_53_573
*22748 FILLER_53_585
*22749 FILLER_53_597
*22750 FILLER_53_609
*22751 FILLER_53_615
*22752 FILLER_53_617
*22753 FILLER_53_629
*22754 FILLER_53_641
*22755 FILLER_53_653
*22756 FILLER_53_665
*22757 FILLER_53_671
*22758 FILLER_53_673
*22759 FILLER_53_685
*22760 FILLER_53_69
*22761 FILLER_53_697
*22762 FILLER_53_709
*22763 FILLER_53_721
*22764 FILLER_53_727
*22765 FILLER_53_729
*22766 FILLER_53_741
*22767 FILLER_53_753
*22768 FILLER_53_765
*22769 FILLER_53_777
*22770 FILLER_53_783
*22771 FILLER_53_785
*22772 FILLER_53_797
*22773 FILLER_53_809
*22774 FILLER_53_81
*22775 FILLER_53_821
*22776 FILLER_53_833
*22777 FILLER_53_839
*22778 FILLER_53_841
*22779 FILLER_53_853
*22780 FILLER_53_865
*22781 FILLER_53_877
*22782 FILLER_53_889
*22783 FILLER_53_895
*22784 FILLER_53_897
*22785 FILLER_53_909
*22786 FILLER_53_921
*22787 FILLER_53_93
*22788 FILLER_53_933
*22789 FILLER_53_945
*22790 FILLER_53_951
*22791 FILLER_53_953
*22792 FILLER_53_965
*22793 FILLER_53_977
*22794 FILLER_53_989
*22795 FILLER_54_1005
*22796 FILLER_54_1017
*22797 FILLER_54_1029
*22798 FILLER_54_1035
*22799 FILLER_54_1037
*22800 FILLER_54_1049
*22801 FILLER_54_1061
*22802 FILLER_54_1073
*22803 FILLER_54_1085
*22804 FILLER_54_109
*22805 FILLER_54_1091
*22806 FILLER_54_1093
*22807 FILLER_54_1105
*22808 FILLER_54_1117
*22809 FILLER_54_1129
*22810 FILLER_54_1141
*22811 FILLER_54_1147
*22812 FILLER_54_1149
*22813 FILLER_54_1161
*22814 FILLER_54_1173
*22815 FILLER_54_1185
*22816 FILLER_54_1197
*22817 FILLER_54_1203
*22818 FILLER_54_1205
*22819 FILLER_54_121
*22820 FILLER_54_1217
*22821 FILLER_54_1229
*22822 FILLER_54_1241
*22823 FILLER_54_1253
*22824 FILLER_54_1259
*22825 FILLER_54_1261
*22826 FILLER_54_1276
*22827 FILLER_54_133
*22828 FILLER_54_139
*22829 FILLER_54_141
*22830 FILLER_54_153
*22831 FILLER_54_165
*22832 FILLER_54_177
*22833 FILLER_54_189
*22834 FILLER_54_19
*22835 FILLER_54_195
*22836 FILLER_54_197
*22837 FILLER_54_209
*22838 FILLER_54_221
*22839 FILLER_54_233
*22840 FILLER_54_245
*22841 FILLER_54_251
*22842 FILLER_54_253
*22843 FILLER_54_265
*22844 FILLER_54_27
*22845 FILLER_54_277
*22846 FILLER_54_289
*22847 FILLER_54_29
*22848 FILLER_54_3
*22849 FILLER_54_301
*22850 FILLER_54_307
*22851 FILLER_54_309
*22852 FILLER_54_321
*22853 FILLER_54_333
*22854 FILLER_54_345
*22855 FILLER_54_357
*22856 FILLER_54_363
*22857 FILLER_54_365
*22858 FILLER_54_377
*22859 FILLER_54_389
*22860 FILLER_54_401
*22861 FILLER_54_41
*22862 FILLER_54_413
*22863 FILLER_54_419
*22864 FILLER_54_421
*22865 FILLER_54_433
*22866 FILLER_54_445
*22867 FILLER_54_457
*22868 FILLER_54_469
*22869 FILLER_54_475
*22870 FILLER_54_477
*22871 FILLER_54_489
*22872 FILLER_54_501
*22873 FILLER_54_513
*22874 FILLER_54_525
*22875 FILLER_54_53
*22876 FILLER_54_531
*22877 FILLER_54_533
*22878 FILLER_54_545
*22879 FILLER_54_557
*22880 FILLER_54_569
*22881 FILLER_54_581
*22882 FILLER_54_587
*22883 FILLER_54_589
*22884 FILLER_54_601
*22885 FILLER_54_613
*22886 FILLER_54_625
*22887 FILLER_54_637
*22888 FILLER_54_643
*22889 FILLER_54_645
*22890 FILLER_54_65
*22891 FILLER_54_657
*22892 FILLER_54_669
*22893 FILLER_54_681
*22894 FILLER_54_693
*22895 FILLER_54_699
*22896 FILLER_54_7
*22897 FILLER_54_701
*22898 FILLER_54_713
*22899 FILLER_54_725
*22900 FILLER_54_737
*22901 FILLER_54_749
*22902 FILLER_54_755
*22903 FILLER_54_757
*22904 FILLER_54_769
*22905 FILLER_54_77
*22906 FILLER_54_781
*22907 FILLER_54_793
*22908 FILLER_54_805
*22909 FILLER_54_811
*22910 FILLER_54_813
*22911 FILLER_54_825
*22912 FILLER_54_83
*22913 FILLER_54_837
*22914 FILLER_54_849
*22915 FILLER_54_85
*22916 FILLER_54_861
*22917 FILLER_54_867
*22918 FILLER_54_869
*22919 FILLER_54_881
*22920 FILLER_54_893
*22921 FILLER_54_905
*22922 FILLER_54_917
*22923 FILLER_54_923
*22924 FILLER_54_925
*22925 FILLER_54_937
*22926 FILLER_54_949
*22927 FILLER_54_961
*22928 FILLER_54_97
*22929 FILLER_54_973
*22930 FILLER_54_979
*22931 FILLER_54_981
*22932 FILLER_54_993
*22933 FILLER_55_1001
*22934 FILLER_55_1007
*22935 FILLER_55_1009
*22936 FILLER_55_1021
*22937 FILLER_55_1033
*22938 FILLER_55_1045
*22939 FILLER_55_105
*22940 FILLER_55_1057
*22941 FILLER_55_1063
*22942 FILLER_55_1065
*22943 FILLER_55_1077
*22944 FILLER_55_1089
*22945 FILLER_55_1101
*22946 FILLER_55_111
*22947 FILLER_55_1113
*22948 FILLER_55_1119
*22949 FILLER_55_1121
*22950 FILLER_55_113
*22951 FILLER_55_1133
*22952 FILLER_55_1145
*22953 FILLER_55_1157
*22954 FILLER_55_1169
*22955 FILLER_55_1175
*22956 FILLER_55_1177
*22957 FILLER_55_1189
*22958 FILLER_55_1201
*22959 FILLER_55_1213
*22960 FILLER_55_1225
*22961 FILLER_55_1231
*22962 FILLER_55_1233
*22963 FILLER_55_1245
*22964 FILLER_55_125
*22965 FILLER_55_1257
*22966 FILLER_55_1269
*22967 FILLER_55_1276
*22968 FILLER_55_137
*22969 FILLER_55_149
*22970 FILLER_55_161
*22971 FILLER_55_167
*22972 FILLER_55_169
*22973 FILLER_55_181
*22974 FILLER_55_19
*22975 FILLER_55_193
*22976 FILLER_55_205
*22977 FILLER_55_217
*22978 FILLER_55_223
*22979 FILLER_55_225
*22980 FILLER_55_237
*22981 FILLER_55_249
*22982 FILLER_55_261
*22983 FILLER_55_273
*22984 FILLER_55_279
*22985 FILLER_55_281
*22986 FILLER_55_293
*22987 FILLER_55_3
*22988 FILLER_55_305
*22989 FILLER_55_31
*22990 FILLER_55_317
*22991 FILLER_55_329
*22992 FILLER_55_335
*22993 FILLER_55_337
*22994 FILLER_55_349
*22995 FILLER_55_361
*22996 FILLER_55_373
*22997 FILLER_55_385
*22998 FILLER_55_391
*22999 FILLER_55_393
*23000 FILLER_55_405
*23001 FILLER_55_417
*23002 FILLER_55_429
*23003 FILLER_55_43
*23004 FILLER_55_441
*23005 FILLER_55_447
*23006 FILLER_55_449
*23007 FILLER_55_461
*23008 FILLER_55_473
*23009 FILLER_55_485
*23010 FILLER_55_497
*23011 FILLER_55_503
*23012 FILLER_55_505
*23013 FILLER_55_517
*23014 FILLER_55_529
*23015 FILLER_55_541
*23016 FILLER_55_55
*23017 FILLER_55_553
*23018 FILLER_55_559
*23019 FILLER_55_561
*23020 FILLER_55_57
*23021 FILLER_55_573
*23022 FILLER_55_585
*23023 FILLER_55_597
*23024 FILLER_55_609
*23025 FILLER_55_615
*23026 FILLER_55_617
*23027 FILLER_55_629
*23028 FILLER_55_641
*23029 FILLER_55_653
*23030 FILLER_55_665
*23031 FILLER_55_671
*23032 FILLER_55_673
*23033 FILLER_55_685
*23034 FILLER_55_69
*23035 FILLER_55_697
*23036 FILLER_55_7
*23037 FILLER_55_709
*23038 FILLER_55_721
*23039 FILLER_55_727
*23040 FILLER_55_729
*23041 FILLER_55_741
*23042 FILLER_55_753
*23043 FILLER_55_765
*23044 FILLER_55_777
*23045 FILLER_55_783
*23046 FILLER_55_785
*23047 FILLER_55_797
*23048 FILLER_55_809
*23049 FILLER_55_81
*23050 FILLER_55_821
*23051 FILLER_55_833
*23052 FILLER_55_839
*23053 FILLER_55_841
*23054 FILLER_55_853
*23055 FILLER_55_865
*23056 FILLER_55_877
*23057 FILLER_55_889
*23058 FILLER_55_895
*23059 FILLER_55_897
*23060 FILLER_55_909
*23061 FILLER_55_921
*23062 FILLER_55_93
*23063 FILLER_55_933
*23064 FILLER_55_945
*23065 FILLER_55_951
*23066 FILLER_55_953
*23067 FILLER_55_965
*23068 FILLER_55_977
*23069 FILLER_55_989
*23070 FILLER_56_1005
*23071 FILLER_56_1017
*23072 FILLER_56_1029
*23073 FILLER_56_1035
*23074 FILLER_56_1037
*23075 FILLER_56_1049
*23076 FILLER_56_1061
*23077 FILLER_56_1073
*23078 FILLER_56_1085
*23079 FILLER_56_109
*23080 FILLER_56_1091
*23081 FILLER_56_1093
*23082 FILLER_56_1105
*23083 FILLER_56_1117
*23084 FILLER_56_1129
*23085 FILLER_56_1141
*23086 FILLER_56_1147
*23087 FILLER_56_1149
*23088 FILLER_56_1161
*23089 FILLER_56_1173
*23090 FILLER_56_1185
*23091 FILLER_56_1197
*23092 FILLER_56_1203
*23093 FILLER_56_1205
*23094 FILLER_56_121
*23095 FILLER_56_1217
*23096 FILLER_56_1229
*23097 FILLER_56_1241
*23098 FILLER_56_1253
*23099 FILLER_56_1259
*23100 FILLER_56_1261
*23101 FILLER_56_1276
*23102 FILLER_56_133
*23103 FILLER_56_139
*23104 FILLER_56_141
*23105 FILLER_56_153
*23106 FILLER_56_165
*23107 FILLER_56_177
*23108 FILLER_56_189
*23109 FILLER_56_19
*23110 FILLER_56_195
*23111 FILLER_56_197
*23112 FILLER_56_209
*23113 FILLER_56_221
*23114 FILLER_56_233
*23115 FILLER_56_245
*23116 FILLER_56_251
*23117 FILLER_56_253
*23118 FILLER_56_265
*23119 FILLER_56_27
*23120 FILLER_56_277
*23121 FILLER_56_289
*23122 FILLER_56_29
*23123 FILLER_56_3
*23124 FILLER_56_301
*23125 FILLER_56_307
*23126 FILLER_56_309
*23127 FILLER_56_321
*23128 FILLER_56_333
*23129 FILLER_56_345
*23130 FILLER_56_357
*23131 FILLER_56_363
*23132 FILLER_56_365
*23133 FILLER_56_377
*23134 FILLER_56_389
*23135 FILLER_56_401
*23136 FILLER_56_41
*23137 FILLER_56_413
*23138 FILLER_56_419
*23139 FILLER_56_421
*23140 FILLER_56_433
*23141 FILLER_56_445
*23142 FILLER_56_457
*23143 FILLER_56_469
*23144 FILLER_56_475
*23145 FILLER_56_477
*23146 FILLER_56_489
*23147 FILLER_56_501
*23148 FILLER_56_513
*23149 FILLER_56_525
*23150 FILLER_56_53
*23151 FILLER_56_531
*23152 FILLER_56_533
*23153 FILLER_56_545
*23154 FILLER_56_557
*23155 FILLER_56_569
*23156 FILLER_56_581
*23157 FILLER_56_587
*23158 FILLER_56_589
*23159 FILLER_56_601
*23160 FILLER_56_613
*23161 FILLER_56_625
*23162 FILLER_56_637
*23163 FILLER_56_643
*23164 FILLER_56_645
*23165 FILLER_56_65
*23166 FILLER_56_657
*23167 FILLER_56_669
*23168 FILLER_56_681
*23169 FILLER_56_693
*23170 FILLER_56_699
*23171 FILLER_56_7
*23172 FILLER_56_701
*23173 FILLER_56_713
*23174 FILLER_56_725
*23175 FILLER_56_737
*23176 FILLER_56_749
*23177 FILLER_56_755
*23178 FILLER_56_757
*23179 FILLER_56_769
*23180 FILLER_56_77
*23181 FILLER_56_781
*23182 FILLER_56_793
*23183 FILLER_56_805
*23184 FILLER_56_811
*23185 FILLER_56_813
*23186 FILLER_56_825
*23187 FILLER_56_83
*23188 FILLER_56_837
*23189 FILLER_56_849
*23190 FILLER_56_85
*23191 FILLER_56_861
*23192 FILLER_56_867
*23193 FILLER_56_869
*23194 FILLER_56_881
*23195 FILLER_56_893
*23196 FILLER_56_905
*23197 FILLER_56_917
*23198 FILLER_56_923
*23199 FILLER_56_925
*23200 FILLER_56_937
*23201 FILLER_56_949
*23202 FILLER_56_961
*23203 FILLER_56_97
*23204 FILLER_56_973
*23205 FILLER_56_979
*23206 FILLER_56_981
*23207 FILLER_56_993
*23208 FILLER_57_1001
*23209 FILLER_57_1007
*23210 FILLER_57_1009
*23211 FILLER_57_1021
*23212 FILLER_57_1033
*23213 FILLER_57_1045
*23214 FILLER_57_105
*23215 FILLER_57_1057
*23216 FILLER_57_1063
*23217 FILLER_57_1065
*23218 FILLER_57_1077
*23219 FILLER_57_1089
*23220 FILLER_57_1101
*23221 FILLER_57_111
*23222 FILLER_57_1113
*23223 FILLER_57_1119
*23224 FILLER_57_1121
*23225 FILLER_57_113
*23226 FILLER_57_1133
*23227 FILLER_57_1145
*23228 FILLER_57_1157
*23229 FILLER_57_1169
*23230 FILLER_57_1175
*23231 FILLER_57_1177
*23232 FILLER_57_1189
*23233 FILLER_57_1201
*23234 FILLER_57_1213
*23235 FILLER_57_1225
*23236 FILLER_57_1231
*23237 FILLER_57_1233
*23238 FILLER_57_1245
*23239 FILLER_57_125
*23240 FILLER_57_1257
*23241 FILLER_57_1269
*23242 FILLER_57_1276
*23243 FILLER_57_137
*23244 FILLER_57_149
*23245 FILLER_57_161
*23246 FILLER_57_167
*23247 FILLER_57_169
*23248 FILLER_57_181
*23249 FILLER_57_19
*23250 FILLER_57_193
*23251 FILLER_57_205
*23252 FILLER_57_217
*23253 FILLER_57_223
*23254 FILLER_57_225
*23255 FILLER_57_237
*23256 FILLER_57_249
*23257 FILLER_57_261
*23258 FILLER_57_273
*23259 FILLER_57_279
*23260 FILLER_57_281
*23261 FILLER_57_293
*23262 FILLER_57_3
*23263 FILLER_57_305
*23264 FILLER_57_31
*23265 FILLER_57_317
*23266 FILLER_57_329
*23267 FILLER_57_335
*23268 FILLER_57_337
*23269 FILLER_57_349
*23270 FILLER_57_361
*23271 FILLER_57_373
*23272 FILLER_57_385
*23273 FILLER_57_391
*23274 FILLER_57_393
*23275 FILLER_57_405
*23276 FILLER_57_417
*23277 FILLER_57_429
*23278 FILLER_57_43
*23279 FILLER_57_441
*23280 FILLER_57_447
*23281 FILLER_57_449
*23282 FILLER_57_461
*23283 FILLER_57_473
*23284 FILLER_57_485
*23285 FILLER_57_497
*23286 FILLER_57_503
*23287 FILLER_57_505
*23288 FILLER_57_517
*23289 FILLER_57_529
*23290 FILLER_57_541
*23291 FILLER_57_55
*23292 FILLER_57_553
*23293 FILLER_57_559
*23294 FILLER_57_561
*23295 FILLER_57_57
*23296 FILLER_57_573
*23297 FILLER_57_585
*23298 FILLER_57_597
*23299 FILLER_57_609
*23300 FILLER_57_615
*23301 FILLER_57_617
*23302 FILLER_57_629
*23303 FILLER_57_641
*23304 FILLER_57_653
*23305 FILLER_57_665
*23306 FILLER_57_671
*23307 FILLER_57_673
*23308 FILLER_57_685
*23309 FILLER_57_69
*23310 FILLER_57_697
*23311 FILLER_57_7
*23312 FILLER_57_709
*23313 FILLER_57_721
*23314 FILLER_57_727
*23315 FILLER_57_729
*23316 FILLER_57_741
*23317 FILLER_57_753
*23318 FILLER_57_765
*23319 FILLER_57_777
*23320 FILLER_57_783
*23321 FILLER_57_785
*23322 FILLER_57_797
*23323 FILLER_57_809
*23324 FILLER_57_81
*23325 FILLER_57_821
*23326 FILLER_57_833
*23327 FILLER_57_839
*23328 FILLER_57_841
*23329 FILLER_57_853
*23330 FILLER_57_865
*23331 FILLER_57_877
*23332 FILLER_57_889
*23333 FILLER_57_895
*23334 FILLER_57_897
*23335 FILLER_57_909
*23336 FILLER_57_921
*23337 FILLER_57_93
*23338 FILLER_57_933
*23339 FILLER_57_945
*23340 FILLER_57_951
*23341 FILLER_57_953
*23342 FILLER_57_965
*23343 FILLER_57_977
*23344 FILLER_57_989
*23345 FILLER_58_1005
*23346 FILLER_58_1017
*23347 FILLER_58_1029
*23348 FILLER_58_1035
*23349 FILLER_58_1037
*23350 FILLER_58_1049
*23351 FILLER_58_1061
*23352 FILLER_58_1073
*23353 FILLER_58_1085
*23354 FILLER_58_109
*23355 FILLER_58_1091
*23356 FILLER_58_1093
*23357 FILLER_58_1105
*23358 FILLER_58_1117
*23359 FILLER_58_1129
*23360 FILLER_58_1141
*23361 FILLER_58_1147
*23362 FILLER_58_1149
*23363 FILLER_58_1161
*23364 FILLER_58_1173
*23365 FILLER_58_1185
*23366 FILLER_58_1197
*23367 FILLER_58_1203
*23368 FILLER_58_1205
*23369 FILLER_58_121
*23370 FILLER_58_1217
*23371 FILLER_58_1229
*23372 FILLER_58_1241
*23373 FILLER_58_1253
*23374 FILLER_58_1259
*23375 FILLER_58_1261
*23376 FILLER_58_1273
*23377 FILLER_58_133
*23378 FILLER_58_139
*23379 FILLER_58_141
*23380 FILLER_58_15
*23381 FILLER_58_153
*23382 FILLER_58_165
*23383 FILLER_58_177
*23384 FILLER_58_189
*23385 FILLER_58_195
*23386 FILLER_58_197
*23387 FILLER_58_209
*23388 FILLER_58_221
*23389 FILLER_58_233
*23390 FILLER_58_245
*23391 FILLER_58_251
*23392 FILLER_58_253
*23393 FILLER_58_265
*23394 FILLER_58_27
*23395 FILLER_58_277
*23396 FILLER_58_289
*23397 FILLER_58_29
*23398 FILLER_58_3
*23399 FILLER_58_301
*23400 FILLER_58_307
*23401 FILLER_58_309
*23402 FILLER_58_321
*23403 FILLER_58_333
*23404 FILLER_58_345
*23405 FILLER_58_357
*23406 FILLER_58_363
*23407 FILLER_58_365
*23408 FILLER_58_377
*23409 FILLER_58_389
*23410 FILLER_58_401
*23411 FILLER_58_41
*23412 FILLER_58_413
*23413 FILLER_58_419
*23414 FILLER_58_421
*23415 FILLER_58_433
*23416 FILLER_58_445
*23417 FILLER_58_457
*23418 FILLER_58_469
*23419 FILLER_58_475
*23420 FILLER_58_477
*23421 FILLER_58_489
*23422 FILLER_58_501
*23423 FILLER_58_513
*23424 FILLER_58_525
*23425 FILLER_58_53
*23426 FILLER_58_531
*23427 FILLER_58_533
*23428 FILLER_58_545
*23429 FILLER_58_557
*23430 FILLER_58_569
*23431 FILLER_58_581
*23432 FILLER_58_587
*23433 FILLER_58_589
*23434 FILLER_58_601
*23435 FILLER_58_613
*23436 FILLER_58_625
*23437 FILLER_58_637
*23438 FILLER_58_643
*23439 FILLER_58_645
*23440 FILLER_58_65
*23441 FILLER_58_657
*23442 FILLER_58_669
*23443 FILLER_58_681
*23444 FILLER_58_693
*23445 FILLER_58_699
*23446 FILLER_58_701
*23447 FILLER_58_713
*23448 FILLER_58_725
*23449 FILLER_58_737
*23450 FILLER_58_749
*23451 FILLER_58_755
*23452 FILLER_58_757
*23453 FILLER_58_769
*23454 FILLER_58_77
*23455 FILLER_58_781
*23456 FILLER_58_793
*23457 FILLER_58_805
*23458 FILLER_58_811
*23459 FILLER_58_813
*23460 FILLER_58_825
*23461 FILLER_58_83
*23462 FILLER_58_837
*23463 FILLER_58_849
*23464 FILLER_58_85
*23465 FILLER_58_861
*23466 FILLER_58_867
*23467 FILLER_58_869
*23468 FILLER_58_881
*23469 FILLER_58_893
*23470 FILLER_58_905
*23471 FILLER_58_917
*23472 FILLER_58_923
*23473 FILLER_58_925
*23474 FILLER_58_937
*23475 FILLER_58_949
*23476 FILLER_58_961
*23477 FILLER_58_97
*23478 FILLER_58_973
*23479 FILLER_58_979
*23480 FILLER_58_981
*23481 FILLER_58_993
*23482 FILLER_59_1001
*23483 FILLER_59_1007
*23484 FILLER_59_1009
*23485 FILLER_59_1021
*23486 FILLER_59_1033
*23487 FILLER_59_1045
*23488 FILLER_59_105
*23489 FILLER_59_1057
*23490 FILLER_59_1063
*23491 FILLER_59_1065
*23492 FILLER_59_1077
*23493 FILLER_59_1089
*23494 FILLER_59_1101
*23495 FILLER_59_111
*23496 FILLER_59_1113
*23497 FILLER_59_1119
*23498 FILLER_59_1121
*23499 FILLER_59_113
*23500 FILLER_59_1133
*23501 FILLER_59_1145
*23502 FILLER_59_1157
*23503 FILLER_59_1169
*23504 FILLER_59_1175
*23505 FILLER_59_1177
*23506 FILLER_59_1189
*23507 FILLER_59_1201
*23508 FILLER_59_1213
*23509 FILLER_59_1225
*23510 FILLER_59_1231
*23511 FILLER_59_1233
*23512 FILLER_59_1245
*23513 FILLER_59_125
*23514 FILLER_59_1257
*23515 FILLER_59_1269
*23516 FILLER_59_1276
*23517 FILLER_59_137
*23518 FILLER_59_149
*23519 FILLER_59_161
*23520 FILLER_59_167
*23521 FILLER_59_169
*23522 FILLER_59_181
*23523 FILLER_59_19
*23524 FILLER_59_193
*23525 FILLER_59_205
*23526 FILLER_59_217
*23527 FILLER_59_223
*23528 FILLER_59_225
*23529 FILLER_59_237
*23530 FILLER_59_249
*23531 FILLER_59_261
*23532 FILLER_59_273
*23533 FILLER_59_279
*23534 FILLER_59_281
*23535 FILLER_59_293
*23536 FILLER_59_3
*23537 FILLER_59_305
*23538 FILLER_59_31
*23539 FILLER_59_317
*23540 FILLER_59_329
*23541 FILLER_59_335
*23542 FILLER_59_337
*23543 FILLER_59_349
*23544 FILLER_59_361
*23545 FILLER_59_373
*23546 FILLER_59_385
*23547 FILLER_59_391
*23548 FILLER_59_393
*23549 FILLER_59_405
*23550 FILLER_59_417
*23551 FILLER_59_429
*23552 FILLER_59_43
*23553 FILLER_59_441
*23554 FILLER_59_447
*23555 FILLER_59_449
*23556 FILLER_59_461
*23557 FILLER_59_473
*23558 FILLER_59_485
*23559 FILLER_59_497
*23560 FILLER_59_503
*23561 FILLER_59_505
*23562 FILLER_59_517
*23563 FILLER_59_529
*23564 FILLER_59_541
*23565 FILLER_59_55
*23566 FILLER_59_553
*23567 FILLER_59_559
*23568 FILLER_59_561
*23569 FILLER_59_57
*23570 FILLER_59_573
*23571 FILLER_59_585
*23572 FILLER_59_597
*23573 FILLER_59_609
*23574 FILLER_59_615
*23575 FILLER_59_617
*23576 FILLER_59_629
*23577 FILLER_59_641
*23578 FILLER_59_653
*23579 FILLER_59_665
*23580 FILLER_59_671
*23581 FILLER_59_673
*23582 FILLER_59_685
*23583 FILLER_59_69
*23584 FILLER_59_697
*23585 FILLER_59_7
*23586 FILLER_59_709
*23587 FILLER_59_721
*23588 FILLER_59_727
*23589 FILLER_59_729
*23590 FILLER_59_741
*23591 FILLER_59_753
*23592 FILLER_59_765
*23593 FILLER_59_777
*23594 FILLER_59_783
*23595 FILLER_59_785
*23596 FILLER_59_797
*23597 FILLER_59_809
*23598 FILLER_59_81
*23599 FILLER_59_821
*23600 FILLER_59_833
*23601 FILLER_59_839
*23602 FILLER_59_841
*23603 FILLER_59_853
*23604 FILLER_59_865
*23605 FILLER_59_877
*23606 FILLER_59_889
*23607 FILLER_59_895
*23608 FILLER_59_897
*23609 FILLER_59_909
*23610 FILLER_59_921
*23611 FILLER_59_93
*23612 FILLER_59_933
*23613 FILLER_59_945
*23614 FILLER_59_951
*23615 FILLER_59_953
*23616 FILLER_59_965
*23617 FILLER_59_977
*23618 FILLER_59_989
*23619 FILLER_5_1001
*23620 FILLER_5_1007
*23621 FILLER_5_1009
*23622 FILLER_5_1021
*23623 FILLER_5_1033
*23624 FILLER_5_1045
*23625 FILLER_5_105
*23626 FILLER_5_1057
*23627 FILLER_5_1063
*23628 FILLER_5_1065
*23629 FILLER_5_1077
*23630 FILLER_5_1089
*23631 FILLER_5_1101
*23632 FILLER_5_111
*23633 FILLER_5_1113
*23634 FILLER_5_1119
*23635 FILLER_5_1121
*23636 FILLER_5_113
*23637 FILLER_5_1133
*23638 FILLER_5_1145
*23639 FILLER_5_1157
*23640 FILLER_5_1169
*23641 FILLER_5_1175
*23642 FILLER_5_1177
*23643 FILLER_5_1189
*23644 FILLER_5_1201
*23645 FILLER_5_1213
*23646 FILLER_5_1225
*23647 FILLER_5_1231
*23648 FILLER_5_1233
*23649 FILLER_5_1245
*23650 FILLER_5_125
*23651 FILLER_5_1257
*23652 FILLER_5_1269
*23653 FILLER_5_137
*23654 FILLER_5_149
*23655 FILLER_5_15
*23656 FILLER_5_161
*23657 FILLER_5_167
*23658 FILLER_5_169
*23659 FILLER_5_181
*23660 FILLER_5_193
*23661 FILLER_5_205
*23662 FILLER_5_217
*23663 FILLER_5_223
*23664 FILLER_5_225
*23665 FILLER_5_237
*23666 FILLER_5_249
*23667 FILLER_5_261
*23668 FILLER_5_27
*23669 FILLER_5_273
*23670 FILLER_5_279
*23671 FILLER_5_281
*23672 FILLER_5_293
*23673 FILLER_5_3
*23674 FILLER_5_305
*23675 FILLER_5_317
*23676 FILLER_5_329
*23677 FILLER_5_335
*23678 FILLER_5_337
*23679 FILLER_5_349
*23680 FILLER_5_361
*23681 FILLER_5_373
*23682 FILLER_5_385
*23683 FILLER_5_39
*23684 FILLER_5_391
*23685 FILLER_5_393
*23686 FILLER_5_405
*23687 FILLER_5_417
*23688 FILLER_5_429
*23689 FILLER_5_441
*23690 FILLER_5_447
*23691 FILLER_5_449
*23692 FILLER_5_461
*23693 FILLER_5_473
*23694 FILLER_5_485
*23695 FILLER_5_497
*23696 FILLER_5_503
*23697 FILLER_5_505
*23698 FILLER_5_51
*23699 FILLER_5_517
*23700 FILLER_5_529
*23701 FILLER_5_541
*23702 FILLER_5_55
*23703 FILLER_5_553
*23704 FILLER_5_559
*23705 FILLER_5_561
*23706 FILLER_5_57
*23707 FILLER_5_573
*23708 FILLER_5_585
*23709 FILLER_5_597
*23710 FILLER_5_609
*23711 FILLER_5_615
*23712 FILLER_5_617
*23713 FILLER_5_629
*23714 FILLER_5_641
*23715 FILLER_5_653
*23716 FILLER_5_665
*23717 FILLER_5_671
*23718 FILLER_5_673
*23719 FILLER_5_685
*23720 FILLER_5_69
*23721 FILLER_5_697
*23722 FILLER_5_709
*23723 FILLER_5_721
*23724 FILLER_5_727
*23725 FILLER_5_729
*23726 FILLER_5_741
*23727 FILLER_5_753
*23728 FILLER_5_765
*23729 FILLER_5_777
*23730 FILLER_5_783
*23731 FILLER_5_785
*23732 FILLER_5_797
*23733 FILLER_5_809
*23734 FILLER_5_81
*23735 FILLER_5_821
*23736 FILLER_5_833
*23737 FILLER_5_839
*23738 FILLER_5_841
*23739 FILLER_5_853
*23740 FILLER_5_865
*23741 FILLER_5_877
*23742 FILLER_5_889
*23743 FILLER_5_895
*23744 FILLER_5_897
*23745 FILLER_5_909
*23746 FILLER_5_921
*23747 FILLER_5_93
*23748 FILLER_5_933
*23749 FILLER_5_945
*23750 FILLER_5_951
*23751 FILLER_5_953
*23752 FILLER_5_965
*23753 FILLER_5_977
*23754 FILLER_5_989
*23755 FILLER_60_1005
*23756 FILLER_60_1017
*23757 FILLER_60_1029
*23758 FILLER_60_1035
*23759 FILLER_60_1037
*23760 FILLER_60_1049
*23761 FILLER_60_1061
*23762 FILLER_60_1073
*23763 FILLER_60_1085
*23764 FILLER_60_109
*23765 FILLER_60_1091
*23766 FILLER_60_1093
*23767 FILLER_60_1105
*23768 FILLER_60_1117
*23769 FILLER_60_1129
*23770 FILLER_60_1141
*23771 FILLER_60_1147
*23772 FILLER_60_1149
*23773 FILLER_60_1161
*23774 FILLER_60_1173
*23775 FILLER_60_1185
*23776 FILLER_60_1197
*23777 FILLER_60_1203
*23778 FILLER_60_1205
*23779 FILLER_60_121
*23780 FILLER_60_1217
*23781 FILLER_60_1229
*23782 FILLER_60_1241
*23783 FILLER_60_1253
*23784 FILLER_60_1259
*23785 FILLER_60_1261
*23786 FILLER_60_1276
*23787 FILLER_60_133
*23788 FILLER_60_139
*23789 FILLER_60_141
*23790 FILLER_60_153
*23791 FILLER_60_165
*23792 FILLER_60_177
*23793 FILLER_60_189
*23794 FILLER_60_19
*23795 FILLER_60_195
*23796 FILLER_60_197
*23797 FILLER_60_209
*23798 FILLER_60_221
*23799 FILLER_60_233
*23800 FILLER_60_245
*23801 FILLER_60_251
*23802 FILLER_60_253
*23803 FILLER_60_265
*23804 FILLER_60_27
*23805 FILLER_60_277
*23806 FILLER_60_289
*23807 FILLER_60_29
*23808 FILLER_60_3
*23809 FILLER_60_301
*23810 FILLER_60_307
*23811 FILLER_60_309
*23812 FILLER_60_321
*23813 FILLER_60_333
*23814 FILLER_60_345
*23815 FILLER_60_357
*23816 FILLER_60_363
*23817 FILLER_60_365
*23818 FILLER_60_377
*23819 FILLER_60_389
*23820 FILLER_60_401
*23821 FILLER_60_41
*23822 FILLER_60_413
*23823 FILLER_60_419
*23824 FILLER_60_421
*23825 FILLER_60_433
*23826 FILLER_60_445
*23827 FILLER_60_457
*23828 FILLER_60_469
*23829 FILLER_60_475
*23830 FILLER_60_477
*23831 FILLER_60_489
*23832 FILLER_60_501
*23833 FILLER_60_513
*23834 FILLER_60_525
*23835 FILLER_60_53
*23836 FILLER_60_531
*23837 FILLER_60_533
*23838 FILLER_60_545
*23839 FILLER_60_557
*23840 FILLER_60_569
*23841 FILLER_60_581
*23842 FILLER_60_587
*23843 FILLER_60_589
*23844 FILLER_60_601
*23845 FILLER_60_613
*23846 FILLER_60_625
*23847 FILLER_60_637
*23848 FILLER_60_643
*23849 FILLER_60_645
*23850 FILLER_60_65
*23851 FILLER_60_657
*23852 FILLER_60_669
*23853 FILLER_60_681
*23854 FILLER_60_693
*23855 FILLER_60_699
*23856 FILLER_60_7
*23857 FILLER_60_701
*23858 FILLER_60_713
*23859 FILLER_60_725
*23860 FILLER_60_737
*23861 FILLER_60_749
*23862 FILLER_60_755
*23863 FILLER_60_757
*23864 FILLER_60_769
*23865 FILLER_60_77
*23866 FILLER_60_781
*23867 FILLER_60_793
*23868 FILLER_60_805
*23869 FILLER_60_811
*23870 FILLER_60_813
*23871 FILLER_60_825
*23872 FILLER_60_83
*23873 FILLER_60_837
*23874 FILLER_60_849
*23875 FILLER_60_85
*23876 FILLER_60_861
*23877 FILLER_60_867
*23878 FILLER_60_869
*23879 FILLER_60_881
*23880 FILLER_60_893
*23881 FILLER_60_905
*23882 FILLER_60_917
*23883 FILLER_60_923
*23884 FILLER_60_925
*23885 FILLER_60_937
*23886 FILLER_60_949
*23887 FILLER_60_961
*23888 FILLER_60_97
*23889 FILLER_60_973
*23890 FILLER_60_979
*23891 FILLER_60_981
*23892 FILLER_60_993
*23893 FILLER_61_1001
*23894 FILLER_61_1007
*23895 FILLER_61_1009
*23896 FILLER_61_1021
*23897 FILLER_61_1033
*23898 FILLER_61_1045
*23899 FILLER_61_105
*23900 FILLER_61_1057
*23901 FILLER_61_1063
*23902 FILLER_61_1065
*23903 FILLER_61_1077
*23904 FILLER_61_1089
*23905 FILLER_61_1101
*23906 FILLER_61_111
*23907 FILLER_61_1113
*23908 FILLER_61_1119
*23909 FILLER_61_1121
*23910 FILLER_61_113
*23911 FILLER_61_1133
*23912 FILLER_61_1145
*23913 FILLER_61_1157
*23914 FILLER_61_1169
*23915 FILLER_61_1175
*23916 FILLER_61_1177
*23917 FILLER_61_1189
*23918 FILLER_61_1201
*23919 FILLER_61_1213
*23920 FILLER_61_1225
*23921 FILLER_61_1231
*23922 FILLER_61_1233
*23923 FILLER_61_1245
*23924 FILLER_61_125
*23925 FILLER_61_1257
*23926 FILLER_61_1269
*23927 FILLER_61_1276
*23928 FILLER_61_137
*23929 FILLER_61_149
*23930 FILLER_61_161
*23931 FILLER_61_167
*23932 FILLER_61_169
*23933 FILLER_61_181
*23934 FILLER_61_19
*23935 FILLER_61_193
*23936 FILLER_61_205
*23937 FILLER_61_217
*23938 FILLER_61_223
*23939 FILLER_61_225
*23940 FILLER_61_237
*23941 FILLER_61_249
*23942 FILLER_61_261
*23943 FILLER_61_273
*23944 FILLER_61_279
*23945 FILLER_61_281
*23946 FILLER_61_293
*23947 FILLER_61_3
*23948 FILLER_61_305
*23949 FILLER_61_31
*23950 FILLER_61_317
*23951 FILLER_61_329
*23952 FILLER_61_335
*23953 FILLER_61_337
*23954 FILLER_61_349
*23955 FILLER_61_361
*23956 FILLER_61_373
*23957 FILLER_61_385
*23958 FILLER_61_391
*23959 FILLER_61_393
*23960 FILLER_61_405
*23961 FILLER_61_417
*23962 FILLER_61_429
*23963 FILLER_61_43
*23964 FILLER_61_441
*23965 FILLER_61_447
*23966 FILLER_61_449
*23967 FILLER_61_461
*23968 FILLER_61_473
*23969 FILLER_61_485
*23970 FILLER_61_497
*23971 FILLER_61_503
*23972 FILLER_61_505
*23973 FILLER_61_517
*23974 FILLER_61_529
*23975 FILLER_61_541
*23976 FILLER_61_55
*23977 FILLER_61_553
*23978 FILLER_61_559
*23979 FILLER_61_561
*23980 FILLER_61_57
*23981 FILLER_61_573
*23982 FILLER_61_585
*23983 FILLER_61_597
*23984 FILLER_61_609
*23985 FILLER_61_615
*23986 FILLER_61_617
*23987 FILLER_61_629
*23988 FILLER_61_641
*23989 FILLER_61_653
*23990 FILLER_61_665
*23991 FILLER_61_671
*23992 FILLER_61_673
*23993 FILLER_61_685
*23994 FILLER_61_69
*23995 FILLER_61_697
*23996 FILLER_61_7
*23997 FILLER_61_709
*23998 FILLER_61_721
*23999 FILLER_61_727
*24000 FILLER_61_729
*24001 FILLER_61_741
*24002 FILLER_61_753
*24003 FILLER_61_765
*24004 FILLER_61_777
*24005 FILLER_61_783
*24006 FILLER_61_785
*24007 FILLER_61_797
*24008 FILLER_61_809
*24009 FILLER_61_81
*24010 FILLER_61_821
*24011 FILLER_61_833
*24012 FILLER_61_839
*24013 FILLER_61_841
*24014 FILLER_61_853
*24015 FILLER_61_865
*24016 FILLER_61_877
*24017 FILLER_61_889
*24018 FILLER_61_895
*24019 FILLER_61_897
*24020 FILLER_61_909
*24021 FILLER_61_921
*24022 FILLER_61_93
*24023 FILLER_61_933
*24024 FILLER_61_945
*24025 FILLER_61_951
*24026 FILLER_61_953
*24027 FILLER_61_965
*24028 FILLER_61_977
*24029 FILLER_61_989
*24030 FILLER_62_1005
*24031 FILLER_62_1017
*24032 FILLER_62_1029
*24033 FILLER_62_1035
*24034 FILLER_62_1037
*24035 FILLER_62_1049
*24036 FILLER_62_1061
*24037 FILLER_62_1073
*24038 FILLER_62_1085
*24039 FILLER_62_109
*24040 FILLER_62_1091
*24041 FILLER_62_1093
*24042 FILLER_62_1105
*24043 FILLER_62_1117
*24044 FILLER_62_1129
*24045 FILLER_62_1141
*24046 FILLER_62_1147
*24047 FILLER_62_1149
*24048 FILLER_62_1161
*24049 FILLER_62_1173
*24050 FILLER_62_1185
*24051 FILLER_62_1197
*24052 FILLER_62_1203
*24053 FILLER_62_1205
*24054 FILLER_62_121
*24055 FILLER_62_1217
*24056 FILLER_62_1229
*24057 FILLER_62_1241
*24058 FILLER_62_1253
*24059 FILLER_62_1259
*24060 FILLER_62_1261
*24061 FILLER_62_1276
*24062 FILLER_62_133
*24063 FILLER_62_139
*24064 FILLER_62_141
*24065 FILLER_62_153
*24066 FILLER_62_165
*24067 FILLER_62_177
*24068 FILLER_62_189
*24069 FILLER_62_19
*24070 FILLER_62_195
*24071 FILLER_62_197
*24072 FILLER_62_209
*24073 FILLER_62_221
*24074 FILLER_62_233
*24075 FILLER_62_245
*24076 FILLER_62_251
*24077 FILLER_62_253
*24078 FILLER_62_265
*24079 FILLER_62_27
*24080 FILLER_62_277
*24081 FILLER_62_289
*24082 FILLER_62_29
*24083 FILLER_62_3
*24084 FILLER_62_301
*24085 FILLER_62_307
*24086 FILLER_62_309
*24087 FILLER_62_321
*24088 FILLER_62_333
*24089 FILLER_62_345
*24090 FILLER_62_357
*24091 FILLER_62_363
*24092 FILLER_62_365
*24093 FILLER_62_377
*24094 FILLER_62_389
*24095 FILLER_62_401
*24096 FILLER_62_41
*24097 FILLER_62_413
*24098 FILLER_62_419
*24099 FILLER_62_421
*24100 FILLER_62_433
*24101 FILLER_62_445
*24102 FILLER_62_457
*24103 FILLER_62_469
*24104 FILLER_62_475
*24105 FILLER_62_477
*24106 FILLER_62_489
*24107 FILLER_62_501
*24108 FILLER_62_513
*24109 FILLER_62_525
*24110 FILLER_62_53
*24111 FILLER_62_531
*24112 FILLER_62_533
*24113 FILLER_62_545
*24114 FILLER_62_557
*24115 FILLER_62_569
*24116 FILLER_62_581
*24117 FILLER_62_587
*24118 FILLER_62_589
*24119 FILLER_62_601
*24120 FILLER_62_613
*24121 FILLER_62_625
*24122 FILLER_62_637
*24123 FILLER_62_643
*24124 FILLER_62_645
*24125 FILLER_62_65
*24126 FILLER_62_657
*24127 FILLER_62_669
*24128 FILLER_62_681
*24129 FILLER_62_693
*24130 FILLER_62_699
*24131 FILLER_62_7
*24132 FILLER_62_701
*24133 FILLER_62_713
*24134 FILLER_62_725
*24135 FILLER_62_737
*24136 FILLER_62_749
*24137 FILLER_62_755
*24138 FILLER_62_757
*24139 FILLER_62_769
*24140 FILLER_62_77
*24141 FILLER_62_781
*24142 FILLER_62_793
*24143 FILLER_62_805
*24144 FILLER_62_811
*24145 FILLER_62_813
*24146 FILLER_62_825
*24147 FILLER_62_83
*24148 FILLER_62_837
*24149 FILLER_62_849
*24150 FILLER_62_85
*24151 FILLER_62_861
*24152 FILLER_62_867
*24153 FILLER_62_869
*24154 FILLER_62_881
*24155 FILLER_62_893
*24156 FILLER_62_905
*24157 FILLER_62_917
*24158 FILLER_62_923
*24159 FILLER_62_925
*24160 FILLER_62_937
*24161 FILLER_62_949
*24162 FILLER_62_961
*24163 FILLER_62_97
*24164 FILLER_62_973
*24165 FILLER_62_979
*24166 FILLER_62_981
*24167 FILLER_62_993
*24168 FILLER_63_1001
*24169 FILLER_63_1007
*24170 FILLER_63_1009
*24171 FILLER_63_1021
*24172 FILLER_63_1033
*24173 FILLER_63_1045
*24174 FILLER_63_105
*24175 FILLER_63_1057
*24176 FILLER_63_1063
*24177 FILLER_63_1065
*24178 FILLER_63_1077
*24179 FILLER_63_1089
*24180 FILLER_63_1101
*24181 FILLER_63_111
*24182 FILLER_63_1113
*24183 FILLER_63_1119
*24184 FILLER_63_1121
*24185 FILLER_63_113
*24186 FILLER_63_1133
*24187 FILLER_63_1145
*24188 FILLER_63_1157
*24189 FILLER_63_1169
*24190 FILLER_63_1175
*24191 FILLER_63_1177
*24192 FILLER_63_1189
*24193 FILLER_63_1201
*24194 FILLER_63_1213
*24195 FILLER_63_1225
*24196 FILLER_63_1231
*24197 FILLER_63_1233
*24198 FILLER_63_1245
*24199 FILLER_63_125
*24200 FILLER_63_1257
*24201 FILLER_63_1269
*24202 FILLER_63_137
*24203 FILLER_63_149
*24204 FILLER_63_15
*24205 FILLER_63_161
*24206 FILLER_63_167
*24207 FILLER_63_169
*24208 FILLER_63_181
*24209 FILLER_63_193
*24210 FILLER_63_205
*24211 FILLER_63_217
*24212 FILLER_63_223
*24213 FILLER_63_225
*24214 FILLER_63_237
*24215 FILLER_63_249
*24216 FILLER_63_261
*24217 FILLER_63_27
*24218 FILLER_63_273
*24219 FILLER_63_279
*24220 FILLER_63_281
*24221 FILLER_63_293
*24222 FILLER_63_3
*24223 FILLER_63_305
*24224 FILLER_63_317
*24225 FILLER_63_329
*24226 FILLER_63_335
*24227 FILLER_63_337
*24228 FILLER_63_349
*24229 FILLER_63_361
*24230 FILLER_63_373
*24231 FILLER_63_385
*24232 FILLER_63_39
*24233 FILLER_63_391
*24234 FILLER_63_393
*24235 FILLER_63_405
*24236 FILLER_63_417
*24237 FILLER_63_429
*24238 FILLER_63_441
*24239 FILLER_63_447
*24240 FILLER_63_449
*24241 FILLER_63_461
*24242 FILLER_63_473
*24243 FILLER_63_485
*24244 FILLER_63_497
*24245 FILLER_63_503
*24246 FILLER_63_505
*24247 FILLER_63_51
*24248 FILLER_63_517
*24249 FILLER_63_529
*24250 FILLER_63_541
*24251 FILLER_63_55
*24252 FILLER_63_553
*24253 FILLER_63_559
*24254 FILLER_63_561
*24255 FILLER_63_57
*24256 FILLER_63_573
*24257 FILLER_63_585
*24258 FILLER_63_597
*24259 FILLER_63_609
*24260 FILLER_63_615
*24261 FILLER_63_617
*24262 FILLER_63_629
*24263 FILLER_63_641
*24264 FILLER_63_653
*24265 FILLER_63_665
*24266 FILLER_63_671
*24267 FILLER_63_673
*24268 FILLER_63_685
*24269 FILLER_63_69
*24270 FILLER_63_697
*24271 FILLER_63_709
*24272 FILLER_63_721
*24273 FILLER_63_727
*24274 FILLER_63_729
*24275 FILLER_63_741
*24276 FILLER_63_753
*24277 FILLER_63_765
*24278 FILLER_63_777
*24279 FILLER_63_783
*24280 FILLER_63_785
*24281 FILLER_63_797
*24282 FILLER_63_809
*24283 FILLER_63_81
*24284 FILLER_63_821
*24285 FILLER_63_833
*24286 FILLER_63_839
*24287 FILLER_63_841
*24288 FILLER_63_853
*24289 FILLER_63_865
*24290 FILLER_63_877
*24291 FILLER_63_889
*24292 FILLER_63_895
*24293 FILLER_63_897
*24294 FILLER_63_909
*24295 FILLER_63_921
*24296 FILLER_63_93
*24297 FILLER_63_933
*24298 FILLER_63_945
*24299 FILLER_63_951
*24300 FILLER_63_953
*24301 FILLER_63_965
*24302 FILLER_63_977
*24303 FILLER_63_989
*24304 FILLER_64_1005
*24305 FILLER_64_1017
*24306 FILLER_64_1029
*24307 FILLER_64_1035
*24308 FILLER_64_1037
*24309 FILLER_64_1049
*24310 FILLER_64_1061
*24311 FILLER_64_1073
*24312 FILLER_64_1085
*24313 FILLER_64_109
*24314 FILLER_64_1091
*24315 FILLER_64_1093
*24316 FILLER_64_1105
*24317 FILLER_64_1117
*24318 FILLER_64_1129
*24319 FILLER_64_1141
*24320 FILLER_64_1147
*24321 FILLER_64_1149
*24322 FILLER_64_1161
*24323 FILLER_64_1173
*24324 FILLER_64_1185
*24325 FILLER_64_1197
*24326 FILLER_64_1203
*24327 FILLER_64_1205
*24328 FILLER_64_121
*24329 FILLER_64_1217
*24330 FILLER_64_1229
*24331 FILLER_64_1241
*24332 FILLER_64_1253
*24333 FILLER_64_1259
*24334 FILLER_64_1261
*24335 FILLER_64_1276
*24336 FILLER_64_133
*24337 FILLER_64_139
*24338 FILLER_64_141
*24339 FILLER_64_153
*24340 FILLER_64_165
*24341 FILLER_64_177
*24342 FILLER_64_189
*24343 FILLER_64_19
*24344 FILLER_64_195
*24345 FILLER_64_197
*24346 FILLER_64_209
*24347 FILLER_64_221
*24348 FILLER_64_233
*24349 FILLER_64_245
*24350 FILLER_64_251
*24351 FILLER_64_253
*24352 FILLER_64_265
*24353 FILLER_64_27
*24354 FILLER_64_277
*24355 FILLER_64_289
*24356 FILLER_64_29
*24357 FILLER_64_3
*24358 FILLER_64_301
*24359 FILLER_64_307
*24360 FILLER_64_309
*24361 FILLER_64_321
*24362 FILLER_64_333
*24363 FILLER_64_345
*24364 FILLER_64_357
*24365 FILLER_64_363
*24366 FILLER_64_365
*24367 FILLER_64_377
*24368 FILLER_64_389
*24369 FILLER_64_401
*24370 FILLER_64_41
*24371 FILLER_64_413
*24372 FILLER_64_419
*24373 FILLER_64_421
*24374 FILLER_64_433
*24375 FILLER_64_445
*24376 FILLER_64_457
*24377 FILLER_64_469
*24378 FILLER_64_475
*24379 FILLER_64_477
*24380 FILLER_64_489
*24381 FILLER_64_501
*24382 FILLER_64_513
*24383 FILLER_64_525
*24384 FILLER_64_53
*24385 FILLER_64_531
*24386 FILLER_64_533
*24387 FILLER_64_545
*24388 FILLER_64_557
*24389 FILLER_64_569
*24390 FILLER_64_581
*24391 FILLER_64_587
*24392 FILLER_64_589
*24393 FILLER_64_601
*24394 FILLER_64_613
*24395 FILLER_64_625
*24396 FILLER_64_637
*24397 FILLER_64_643
*24398 FILLER_64_645
*24399 FILLER_64_65
*24400 FILLER_64_657
*24401 FILLER_64_669
*24402 FILLER_64_681
*24403 FILLER_64_693
*24404 FILLER_64_699
*24405 FILLER_64_7
*24406 FILLER_64_701
*24407 FILLER_64_713
*24408 FILLER_64_725
*24409 FILLER_64_737
*24410 FILLER_64_749
*24411 FILLER_64_755
*24412 FILLER_64_757
*24413 FILLER_64_769
*24414 FILLER_64_77
*24415 FILLER_64_781
*24416 FILLER_64_793
*24417 FILLER_64_805
*24418 FILLER_64_811
*24419 FILLER_64_813
*24420 FILLER_64_825
*24421 FILLER_64_83
*24422 FILLER_64_837
*24423 FILLER_64_849
*24424 FILLER_64_85
*24425 FILLER_64_861
*24426 FILLER_64_867
*24427 FILLER_64_869
*24428 FILLER_64_881
*24429 FILLER_64_893
*24430 FILLER_64_905
*24431 FILLER_64_917
*24432 FILLER_64_923
*24433 FILLER_64_925
*24434 FILLER_64_937
*24435 FILLER_64_949
*24436 FILLER_64_961
*24437 FILLER_64_97
*24438 FILLER_64_973
*24439 FILLER_64_979
*24440 FILLER_64_981
*24441 FILLER_64_993
*24442 FILLER_65_1001
*24443 FILLER_65_1007
*24444 FILLER_65_1009
*24445 FILLER_65_1021
*24446 FILLER_65_1033
*24447 FILLER_65_1045
*24448 FILLER_65_105
*24449 FILLER_65_1057
*24450 FILLER_65_1063
*24451 FILLER_65_1065
*24452 FILLER_65_1077
*24453 FILLER_65_1089
*24454 FILLER_65_1101
*24455 FILLER_65_111
*24456 FILLER_65_1113
*24457 FILLER_65_1119
*24458 FILLER_65_1121
*24459 FILLER_65_113
*24460 FILLER_65_1133
*24461 FILLER_65_1145
*24462 FILLER_65_1157
*24463 FILLER_65_1169
*24464 FILLER_65_1175
*24465 FILLER_65_1177
*24466 FILLER_65_1189
*24467 FILLER_65_1201
*24468 FILLER_65_1213
*24469 FILLER_65_1225
*24470 FILLER_65_1231
*24471 FILLER_65_1233
*24472 FILLER_65_1245
*24473 FILLER_65_125
*24474 FILLER_65_1257
*24475 FILLER_65_1269
*24476 FILLER_65_1276
*24477 FILLER_65_137
*24478 FILLER_65_149
*24479 FILLER_65_161
*24480 FILLER_65_167
*24481 FILLER_65_169
*24482 FILLER_65_181
*24483 FILLER_65_19
*24484 FILLER_65_193
*24485 FILLER_65_205
*24486 FILLER_65_217
*24487 FILLER_65_223
*24488 FILLER_65_225
*24489 FILLER_65_237
*24490 FILLER_65_249
*24491 FILLER_65_261
*24492 FILLER_65_273
*24493 FILLER_65_279
*24494 FILLER_65_281
*24495 FILLER_65_293
*24496 FILLER_65_3
*24497 FILLER_65_305
*24498 FILLER_65_31
*24499 FILLER_65_317
*24500 FILLER_65_329
*24501 FILLER_65_335
*24502 FILLER_65_337
*24503 FILLER_65_349
*24504 FILLER_65_361
*24505 FILLER_65_373
*24506 FILLER_65_385
*24507 FILLER_65_391
*24508 FILLER_65_393
*24509 FILLER_65_405
*24510 FILLER_65_417
*24511 FILLER_65_429
*24512 FILLER_65_43
*24513 FILLER_65_441
*24514 FILLER_65_447
*24515 FILLER_65_449
*24516 FILLER_65_461
*24517 FILLER_65_473
*24518 FILLER_65_485
*24519 FILLER_65_497
*24520 FILLER_65_503
*24521 FILLER_65_505
*24522 FILLER_65_517
*24523 FILLER_65_529
*24524 FILLER_65_541
*24525 FILLER_65_55
*24526 FILLER_65_553
*24527 FILLER_65_559
*24528 FILLER_65_561
*24529 FILLER_65_57
*24530 FILLER_65_573
*24531 FILLER_65_585
*24532 FILLER_65_597
*24533 FILLER_65_609
*24534 FILLER_65_615
*24535 FILLER_65_617
*24536 FILLER_65_629
*24537 FILLER_65_641
*24538 FILLER_65_653
*24539 FILLER_65_665
*24540 FILLER_65_671
*24541 FILLER_65_673
*24542 FILLER_65_685
*24543 FILLER_65_69
*24544 FILLER_65_697
*24545 FILLER_65_7
*24546 FILLER_65_709
*24547 FILLER_65_721
*24548 FILLER_65_727
*24549 FILLER_65_729
*24550 FILLER_65_741
*24551 FILLER_65_753
*24552 FILLER_65_765
*24553 FILLER_65_777
*24554 FILLER_65_783
*24555 FILLER_65_785
*24556 FILLER_65_797
*24557 FILLER_65_809
*24558 FILLER_65_81
*24559 FILLER_65_821
*24560 FILLER_65_833
*24561 FILLER_65_839
*24562 FILLER_65_841
*24563 FILLER_65_853
*24564 FILLER_65_865
*24565 FILLER_65_877
*24566 FILLER_65_889
*24567 FILLER_65_895
*24568 FILLER_65_897
*24569 FILLER_65_909
*24570 FILLER_65_921
*24571 FILLER_65_93
*24572 FILLER_65_933
*24573 FILLER_65_945
*24574 FILLER_65_951
*24575 FILLER_65_953
*24576 FILLER_65_965
*24577 FILLER_65_977
*24578 FILLER_65_989
*24579 FILLER_66_1005
*24580 FILLER_66_1017
*24581 FILLER_66_1029
*24582 FILLER_66_1035
*24583 FILLER_66_1037
*24584 FILLER_66_1049
*24585 FILLER_66_1061
*24586 FILLER_66_1073
*24587 FILLER_66_1085
*24588 FILLER_66_109
*24589 FILLER_66_1091
*24590 FILLER_66_1093
*24591 FILLER_66_1105
*24592 FILLER_66_1117
*24593 FILLER_66_1129
*24594 FILLER_66_1141
*24595 FILLER_66_1147
*24596 FILLER_66_1149
*24597 FILLER_66_1161
*24598 FILLER_66_1173
*24599 FILLER_66_1185
*24600 FILLER_66_1197
*24601 FILLER_66_1203
*24602 FILLER_66_1205
*24603 FILLER_66_121
*24604 FILLER_66_1217
*24605 FILLER_66_1229
*24606 FILLER_66_1241
*24607 FILLER_66_1253
*24608 FILLER_66_1259
*24609 FILLER_66_1261
*24610 FILLER_66_1276
*24611 FILLER_66_133
*24612 FILLER_66_139
*24613 FILLER_66_141
*24614 FILLER_66_153
*24615 FILLER_66_165
*24616 FILLER_66_177
*24617 FILLER_66_189
*24618 FILLER_66_19
*24619 FILLER_66_195
*24620 FILLER_66_197
*24621 FILLER_66_209
*24622 FILLER_66_221
*24623 FILLER_66_233
*24624 FILLER_66_245
*24625 FILLER_66_251
*24626 FILLER_66_253
*24627 FILLER_66_265
*24628 FILLER_66_27
*24629 FILLER_66_277
*24630 FILLER_66_289
*24631 FILLER_66_29
*24632 FILLER_66_3
*24633 FILLER_66_301
*24634 FILLER_66_307
*24635 FILLER_66_309
*24636 FILLER_66_321
*24637 FILLER_66_333
*24638 FILLER_66_345
*24639 FILLER_66_357
*24640 FILLER_66_363
*24641 FILLER_66_365
*24642 FILLER_66_377
*24643 FILLER_66_389
*24644 FILLER_66_401
*24645 FILLER_66_41
*24646 FILLER_66_413
*24647 FILLER_66_419
*24648 FILLER_66_421
*24649 FILLER_66_433
*24650 FILLER_66_445
*24651 FILLER_66_457
*24652 FILLER_66_469
*24653 FILLER_66_475
*24654 FILLER_66_477
*24655 FILLER_66_489
*24656 FILLER_66_501
*24657 FILLER_66_513
*24658 FILLER_66_525
*24659 FILLER_66_53
*24660 FILLER_66_531
*24661 FILLER_66_533
*24662 FILLER_66_545
*24663 FILLER_66_557
*24664 FILLER_66_569
*24665 FILLER_66_581
*24666 FILLER_66_587
*24667 FILLER_66_589
*24668 FILLER_66_601
*24669 FILLER_66_613
*24670 FILLER_66_625
*24671 FILLER_66_637
*24672 FILLER_66_643
*24673 FILLER_66_645
*24674 FILLER_66_65
*24675 FILLER_66_657
*24676 FILLER_66_669
*24677 FILLER_66_681
*24678 FILLER_66_693
*24679 FILLER_66_699
*24680 FILLER_66_7
*24681 FILLER_66_701
*24682 FILLER_66_713
*24683 FILLER_66_725
*24684 FILLER_66_737
*24685 FILLER_66_749
*24686 FILLER_66_755
*24687 FILLER_66_757
*24688 FILLER_66_769
*24689 FILLER_66_77
*24690 FILLER_66_781
*24691 FILLER_66_793
*24692 FILLER_66_805
*24693 FILLER_66_811
*24694 FILLER_66_813
*24695 FILLER_66_825
*24696 FILLER_66_83
*24697 FILLER_66_837
*24698 FILLER_66_849
*24699 FILLER_66_85
*24700 FILLER_66_861
*24701 FILLER_66_867
*24702 FILLER_66_869
*24703 FILLER_66_881
*24704 FILLER_66_893
*24705 FILLER_66_905
*24706 FILLER_66_917
*24707 FILLER_66_923
*24708 FILLER_66_925
*24709 FILLER_66_937
*24710 FILLER_66_949
*24711 FILLER_66_961
*24712 FILLER_66_97
*24713 FILLER_66_973
*24714 FILLER_66_979
*24715 FILLER_66_981
*24716 FILLER_66_993
*24717 FILLER_67_1001
*24718 FILLER_67_1007
*24719 FILLER_67_1009
*24720 FILLER_67_1021
*24721 FILLER_67_1033
*24722 FILLER_67_1045
*24723 FILLER_67_105
*24724 FILLER_67_1057
*24725 FILLER_67_1063
*24726 FILLER_67_1065
*24727 FILLER_67_1077
*24728 FILLER_67_1089
*24729 FILLER_67_1101
*24730 FILLER_67_111
*24731 FILLER_67_1113
*24732 FILLER_67_1119
*24733 FILLER_67_1121
*24734 FILLER_67_113
*24735 FILLER_67_1133
*24736 FILLER_67_1145
*24737 FILLER_67_1157
*24738 FILLER_67_1169
*24739 FILLER_67_1175
*24740 FILLER_67_1177
*24741 FILLER_67_1189
*24742 FILLER_67_1201
*24743 FILLER_67_1213
*24744 FILLER_67_1225
*24745 FILLER_67_1231
*24746 FILLER_67_1233
*24747 FILLER_67_1245
*24748 FILLER_67_125
*24749 FILLER_67_1257
*24750 FILLER_67_1269
*24751 FILLER_67_1276
*24752 FILLER_67_137
*24753 FILLER_67_149
*24754 FILLER_67_161
*24755 FILLER_67_167
*24756 FILLER_67_169
*24757 FILLER_67_181
*24758 FILLER_67_19
*24759 FILLER_67_193
*24760 FILLER_67_205
*24761 FILLER_67_217
*24762 FILLER_67_223
*24763 FILLER_67_225
*24764 FILLER_67_237
*24765 FILLER_67_249
*24766 FILLER_67_261
*24767 FILLER_67_273
*24768 FILLER_67_279
*24769 FILLER_67_281
*24770 FILLER_67_293
*24771 FILLER_67_3
*24772 FILLER_67_305
*24773 FILLER_67_31
*24774 FILLER_67_317
*24775 FILLER_67_329
*24776 FILLER_67_335
*24777 FILLER_67_337
*24778 FILLER_67_349
*24779 FILLER_67_361
*24780 FILLER_67_373
*24781 FILLER_67_385
*24782 FILLER_67_391
*24783 FILLER_67_393
*24784 FILLER_67_405
*24785 FILLER_67_417
*24786 FILLER_67_429
*24787 FILLER_67_43
*24788 FILLER_67_441
*24789 FILLER_67_447
*24790 FILLER_67_449
*24791 FILLER_67_461
*24792 FILLER_67_473
*24793 FILLER_67_485
*24794 FILLER_67_497
*24795 FILLER_67_503
*24796 FILLER_67_505
*24797 FILLER_67_517
*24798 FILLER_67_529
*24799 FILLER_67_541
*24800 FILLER_67_55
*24801 FILLER_67_553
*24802 FILLER_67_559
*24803 FILLER_67_561
*24804 FILLER_67_57
*24805 FILLER_67_573
*24806 FILLER_67_585
*24807 FILLER_67_597
*24808 FILLER_67_609
*24809 FILLER_67_615
*24810 FILLER_67_617
*24811 FILLER_67_629
*24812 FILLER_67_641
*24813 FILLER_67_653
*24814 FILLER_67_665
*24815 FILLER_67_671
*24816 FILLER_67_673
*24817 FILLER_67_685
*24818 FILLER_67_69
*24819 FILLER_67_697
*24820 FILLER_67_7
*24821 FILLER_67_709
*24822 FILLER_67_721
*24823 FILLER_67_727
*24824 FILLER_67_729
*24825 FILLER_67_741
*24826 FILLER_67_753
*24827 FILLER_67_765
*24828 FILLER_67_777
*24829 FILLER_67_783
*24830 FILLER_67_785
*24831 FILLER_67_797
*24832 FILLER_67_809
*24833 FILLER_67_81
*24834 FILLER_67_821
*24835 FILLER_67_833
*24836 FILLER_67_839
*24837 FILLER_67_841
*24838 FILLER_67_853
*24839 FILLER_67_865
*24840 FILLER_67_877
*24841 FILLER_67_889
*24842 FILLER_67_895
*24843 FILLER_67_897
*24844 FILLER_67_909
*24845 FILLER_67_921
*24846 FILLER_67_93
*24847 FILLER_67_933
*24848 FILLER_67_945
*24849 FILLER_67_951
*24850 FILLER_67_953
*24851 FILLER_67_965
*24852 FILLER_67_977
*24853 FILLER_67_989
*24854 FILLER_68_1005
*24855 FILLER_68_1017
*24856 FILLER_68_1029
*24857 FILLER_68_1035
*24858 FILLER_68_1037
*24859 FILLER_68_1049
*24860 FILLER_68_1061
*24861 FILLER_68_1073
*24862 FILLER_68_1085
*24863 FILLER_68_109
*24864 FILLER_68_1091
*24865 FILLER_68_1093
*24866 FILLER_68_1105
*24867 FILLER_68_1117
*24868 FILLER_68_1129
*24869 FILLER_68_1141
*24870 FILLER_68_1147
*24871 FILLER_68_1149
*24872 FILLER_68_1161
*24873 FILLER_68_1173
*24874 FILLER_68_1185
*24875 FILLER_68_1197
*24876 FILLER_68_1203
*24877 FILLER_68_1205
*24878 FILLER_68_121
*24879 FILLER_68_1217
*24880 FILLER_68_1229
*24881 FILLER_68_1241
*24882 FILLER_68_1253
*24883 FILLER_68_1259
*24884 FILLER_68_1261
*24885 FILLER_68_1273
*24886 FILLER_68_133
*24887 FILLER_68_139
*24888 FILLER_68_141
*24889 FILLER_68_15
*24890 FILLER_68_153
*24891 FILLER_68_165
*24892 FILLER_68_177
*24893 FILLER_68_189
*24894 FILLER_68_195
*24895 FILLER_68_197
*24896 FILLER_68_209
*24897 FILLER_68_221
*24898 FILLER_68_233
*24899 FILLER_68_245
*24900 FILLER_68_251
*24901 FILLER_68_253
*24902 FILLER_68_265
*24903 FILLER_68_27
*24904 FILLER_68_277
*24905 FILLER_68_289
*24906 FILLER_68_29
*24907 FILLER_68_3
*24908 FILLER_68_301
*24909 FILLER_68_307
*24910 FILLER_68_309
*24911 FILLER_68_321
*24912 FILLER_68_333
*24913 FILLER_68_345
*24914 FILLER_68_357
*24915 FILLER_68_363
*24916 FILLER_68_365
*24917 FILLER_68_377
*24918 FILLER_68_389
*24919 FILLER_68_401
*24920 FILLER_68_41
*24921 FILLER_68_413
*24922 FILLER_68_419
*24923 FILLER_68_421
*24924 FILLER_68_433
*24925 FILLER_68_445
*24926 FILLER_68_457
*24927 FILLER_68_469
*24928 FILLER_68_475
*24929 FILLER_68_477
*24930 FILLER_68_489
*24931 FILLER_68_501
*24932 FILLER_68_513
*24933 FILLER_68_525
*24934 FILLER_68_53
*24935 FILLER_68_531
*24936 FILLER_68_533
*24937 FILLER_68_545
*24938 FILLER_68_557
*24939 FILLER_68_569
*24940 FILLER_68_581
*24941 FILLER_68_587
*24942 FILLER_68_589
*24943 FILLER_68_601
*24944 FILLER_68_613
*24945 FILLER_68_625
*24946 FILLER_68_637
*24947 FILLER_68_643
*24948 FILLER_68_645
*24949 FILLER_68_65
*24950 FILLER_68_657
*24951 FILLER_68_669
*24952 FILLER_68_681
*24953 FILLER_68_693
*24954 FILLER_68_699
*24955 FILLER_68_701
*24956 FILLER_68_713
*24957 FILLER_68_725
*24958 FILLER_68_737
*24959 FILLER_68_749
*24960 FILLER_68_755
*24961 FILLER_68_757
*24962 FILLER_68_769
*24963 FILLER_68_77
*24964 FILLER_68_781
*24965 FILLER_68_793
*24966 FILLER_68_805
*24967 FILLER_68_811
*24968 FILLER_68_813
*24969 FILLER_68_825
*24970 FILLER_68_83
*24971 FILLER_68_837
*24972 FILLER_68_849
*24973 FILLER_68_85
*24974 FILLER_68_861
*24975 FILLER_68_867
*24976 FILLER_68_869
*24977 FILLER_68_881
*24978 FILLER_68_893
*24979 FILLER_68_905
*24980 FILLER_68_917
*24981 FILLER_68_923
*24982 FILLER_68_925
*24983 FILLER_68_937
*24984 FILLER_68_949
*24985 FILLER_68_961
*24986 FILLER_68_97
*24987 FILLER_68_973
*24988 FILLER_68_979
*24989 FILLER_68_981
*24990 FILLER_68_993
*24991 FILLER_69_1001
*24992 FILLER_69_1007
*24993 FILLER_69_1009
*24994 FILLER_69_1021
*24995 FILLER_69_1033
*24996 FILLER_69_1045
*24997 FILLER_69_105
*24998 FILLER_69_1057
*24999 FILLER_69_1063
*25000 FILLER_69_1065
*25001 FILLER_69_1077
*25002 FILLER_69_1089
*25003 FILLER_69_1101
*25004 FILLER_69_111
*25005 FILLER_69_1113
*25006 FILLER_69_1119
*25007 FILLER_69_1121
*25008 FILLER_69_113
*25009 FILLER_69_1133
*25010 FILLER_69_1145
*25011 FILLER_69_1157
*25012 FILLER_69_1169
*25013 FILLER_69_1175
*25014 FILLER_69_1177
*25015 FILLER_69_1189
*25016 FILLER_69_1201
*25017 FILLER_69_1213
*25018 FILLER_69_1225
*25019 FILLER_69_1231
*25020 FILLER_69_1233
*25021 FILLER_69_1245
*25022 FILLER_69_125
*25023 FILLER_69_1257
*25024 FILLER_69_1269
*25025 FILLER_69_1276
*25026 FILLER_69_137
*25027 FILLER_69_149
*25028 FILLER_69_161
*25029 FILLER_69_167
*25030 FILLER_69_169
*25031 FILLER_69_181
*25032 FILLER_69_19
*25033 FILLER_69_193
*25034 FILLER_69_205
*25035 FILLER_69_217
*25036 FILLER_69_223
*25037 FILLER_69_225
*25038 FILLER_69_237
*25039 FILLER_69_249
*25040 FILLER_69_261
*25041 FILLER_69_273
*25042 FILLER_69_279
*25043 FILLER_69_281
*25044 FILLER_69_293
*25045 FILLER_69_3
*25046 FILLER_69_305
*25047 FILLER_69_31
*25048 FILLER_69_317
*25049 FILLER_69_329
*25050 FILLER_69_335
*25051 FILLER_69_337
*25052 FILLER_69_349
*25053 FILLER_69_361
*25054 FILLER_69_373
*25055 FILLER_69_385
*25056 FILLER_69_391
*25057 FILLER_69_393
*25058 FILLER_69_405
*25059 FILLER_69_417
*25060 FILLER_69_429
*25061 FILLER_69_43
*25062 FILLER_69_441
*25063 FILLER_69_447
*25064 FILLER_69_449
*25065 FILLER_69_461
*25066 FILLER_69_473
*25067 FILLER_69_485
*25068 FILLER_69_497
*25069 FILLER_69_503
*25070 FILLER_69_505
*25071 FILLER_69_517
*25072 FILLER_69_529
*25073 FILLER_69_541
*25074 FILLER_69_55
*25075 FILLER_69_553
*25076 FILLER_69_559
*25077 FILLER_69_561
*25078 FILLER_69_57
*25079 FILLER_69_573
*25080 FILLER_69_585
*25081 FILLER_69_597
*25082 FILLER_69_609
*25083 FILLER_69_615
*25084 FILLER_69_617
*25085 FILLER_69_629
*25086 FILLER_69_641
*25087 FILLER_69_653
*25088 FILLER_69_665
*25089 FILLER_69_671
*25090 FILLER_69_673
*25091 FILLER_69_685
*25092 FILLER_69_69
*25093 FILLER_69_697
*25094 FILLER_69_7
*25095 FILLER_69_709
*25096 FILLER_69_721
*25097 FILLER_69_727
*25098 FILLER_69_729
*25099 FILLER_69_741
*25100 FILLER_69_753
*25101 FILLER_69_765
*25102 FILLER_69_777
*25103 FILLER_69_783
*25104 FILLER_69_785
*25105 FILLER_69_797
*25106 FILLER_69_809
*25107 FILLER_69_81
*25108 FILLER_69_821
*25109 FILLER_69_833
*25110 FILLER_69_839
*25111 FILLER_69_841
*25112 FILLER_69_853
*25113 FILLER_69_865
*25114 FILLER_69_877
*25115 FILLER_69_889
*25116 FILLER_69_895
*25117 FILLER_69_897
*25118 FILLER_69_909
*25119 FILLER_69_921
*25120 FILLER_69_93
*25121 FILLER_69_933
*25122 FILLER_69_945
*25123 FILLER_69_951
*25124 FILLER_69_953
*25125 FILLER_69_965
*25126 FILLER_69_977
*25127 FILLER_69_989
*25128 FILLER_6_1005
*25129 FILLER_6_1017
*25130 FILLER_6_1029
*25131 FILLER_6_1035
*25132 FILLER_6_1037
*25133 FILLER_6_1049
*25134 FILLER_6_1061
*25135 FILLER_6_1073
*25136 FILLER_6_1085
*25137 FILLER_6_109
*25138 FILLER_6_1091
*25139 FILLER_6_1093
*25140 FILLER_6_1105
*25141 FILLER_6_1117
*25142 FILLER_6_1129
*25143 FILLER_6_1141
*25144 FILLER_6_1147
*25145 FILLER_6_1149
*25146 FILLER_6_1161
*25147 FILLER_6_1173
*25148 FILLER_6_1185
*25149 FILLER_6_1197
*25150 FILLER_6_1203
*25151 FILLER_6_1205
*25152 FILLER_6_121
*25153 FILLER_6_1217
*25154 FILLER_6_1229
*25155 FILLER_6_1241
*25156 FILLER_6_1253
*25157 FILLER_6_1259
*25158 FILLER_6_1261
*25159 FILLER_6_1273
*25160 FILLER_6_133
*25161 FILLER_6_139
*25162 FILLER_6_141
*25163 FILLER_6_15
*25164 FILLER_6_153
*25165 FILLER_6_165
*25166 FILLER_6_177
*25167 FILLER_6_189
*25168 FILLER_6_195
*25169 FILLER_6_197
*25170 FILLER_6_209
*25171 FILLER_6_221
*25172 FILLER_6_233
*25173 FILLER_6_245
*25174 FILLER_6_251
*25175 FILLER_6_253
*25176 FILLER_6_265
*25177 FILLER_6_27
*25178 FILLER_6_277
*25179 FILLER_6_289
*25180 FILLER_6_29
*25181 FILLER_6_3
*25182 FILLER_6_301
*25183 FILLER_6_307
*25184 FILLER_6_309
*25185 FILLER_6_321
*25186 FILLER_6_333
*25187 FILLER_6_345
*25188 FILLER_6_357
*25189 FILLER_6_363
*25190 FILLER_6_365
*25191 FILLER_6_377
*25192 FILLER_6_389
*25193 FILLER_6_401
*25194 FILLER_6_41
*25195 FILLER_6_413
*25196 FILLER_6_419
*25197 FILLER_6_421
*25198 FILLER_6_433
*25199 FILLER_6_445
*25200 FILLER_6_457
*25201 FILLER_6_469
*25202 FILLER_6_475
*25203 FILLER_6_477
*25204 FILLER_6_489
*25205 FILLER_6_501
*25206 FILLER_6_513
*25207 FILLER_6_525
*25208 FILLER_6_53
*25209 FILLER_6_531
*25210 FILLER_6_533
*25211 FILLER_6_545
*25212 FILLER_6_557
*25213 FILLER_6_569
*25214 FILLER_6_581
*25215 FILLER_6_587
*25216 FILLER_6_589
*25217 FILLER_6_601
*25218 FILLER_6_613
*25219 FILLER_6_625
*25220 FILLER_6_637
*25221 FILLER_6_643
*25222 FILLER_6_645
*25223 FILLER_6_65
*25224 FILLER_6_657
*25225 FILLER_6_669
*25226 FILLER_6_681
*25227 FILLER_6_693
*25228 FILLER_6_699
*25229 FILLER_6_701
*25230 FILLER_6_713
*25231 FILLER_6_725
*25232 FILLER_6_737
*25233 FILLER_6_749
*25234 FILLER_6_755
*25235 FILLER_6_757
*25236 FILLER_6_769
*25237 FILLER_6_77
*25238 FILLER_6_781
*25239 FILLER_6_793
*25240 FILLER_6_805
*25241 FILLER_6_811
*25242 FILLER_6_813
*25243 FILLER_6_825
*25244 FILLER_6_83
*25245 FILLER_6_837
*25246 FILLER_6_849
*25247 FILLER_6_85
*25248 FILLER_6_861
*25249 FILLER_6_867
*25250 FILLER_6_869
*25251 FILLER_6_881
*25252 FILLER_6_893
*25253 FILLER_6_905
*25254 FILLER_6_917
*25255 FILLER_6_923
*25256 FILLER_6_925
*25257 FILLER_6_937
*25258 FILLER_6_949
*25259 FILLER_6_961
*25260 FILLER_6_97
*25261 FILLER_6_973
*25262 FILLER_6_979
*25263 FILLER_6_981
*25264 FILLER_6_993
*25265 FILLER_70_1005
*25266 FILLER_70_1017
*25267 FILLER_70_1029
*25268 FILLER_70_1035
*25269 FILLER_70_1037
*25270 FILLER_70_1049
*25271 FILLER_70_1061
*25272 FILLER_70_1073
*25273 FILLER_70_1085
*25274 FILLER_70_109
*25275 FILLER_70_1091
*25276 FILLER_70_1093
*25277 FILLER_70_1105
*25278 FILLER_70_1117
*25279 FILLER_70_1129
*25280 FILLER_70_1141
*25281 FILLER_70_1147
*25282 FILLER_70_1149
*25283 FILLER_70_1161
*25284 FILLER_70_1173
*25285 FILLER_70_1185
*25286 FILLER_70_1197
*25287 FILLER_70_1203
*25288 FILLER_70_1205
*25289 FILLER_70_121
*25290 FILLER_70_1217
*25291 FILLER_70_1229
*25292 FILLER_70_1241
*25293 FILLER_70_1253
*25294 FILLER_70_1259
*25295 FILLER_70_1261
*25296 FILLER_70_1276
*25297 FILLER_70_133
*25298 FILLER_70_139
*25299 FILLER_70_141
*25300 FILLER_70_153
*25301 FILLER_70_165
*25302 FILLER_70_177
*25303 FILLER_70_189
*25304 FILLER_70_19
*25305 FILLER_70_195
*25306 FILLER_70_197
*25307 FILLER_70_209
*25308 FILLER_70_221
*25309 FILLER_70_233
*25310 FILLER_70_245
*25311 FILLER_70_251
*25312 FILLER_70_253
*25313 FILLER_70_265
*25314 FILLER_70_27
*25315 FILLER_70_277
*25316 FILLER_70_289
*25317 FILLER_70_29
*25318 FILLER_70_3
*25319 FILLER_70_301
*25320 FILLER_70_307
*25321 FILLER_70_309
*25322 FILLER_70_321
*25323 FILLER_70_333
*25324 FILLER_70_345
*25325 FILLER_70_357
*25326 FILLER_70_363
*25327 FILLER_70_365
*25328 FILLER_70_377
*25329 FILLER_70_389
*25330 FILLER_70_401
*25331 FILLER_70_41
*25332 FILLER_70_413
*25333 FILLER_70_419
*25334 FILLER_70_421
*25335 FILLER_70_433
*25336 FILLER_70_445
*25337 FILLER_70_457
*25338 FILLER_70_469
*25339 FILLER_70_475
*25340 FILLER_70_477
*25341 FILLER_70_489
*25342 FILLER_70_501
*25343 FILLER_70_513
*25344 FILLER_70_525
*25345 FILLER_70_53
*25346 FILLER_70_531
*25347 FILLER_70_533
*25348 FILLER_70_545
*25349 FILLER_70_557
*25350 FILLER_70_569
*25351 FILLER_70_581
*25352 FILLER_70_587
*25353 FILLER_70_589
*25354 FILLER_70_601
*25355 FILLER_70_613
*25356 FILLER_70_619
*25357 FILLER_70_625
*25358 FILLER_70_637
*25359 FILLER_70_643
*25360 FILLER_70_645
*25361 FILLER_70_65
*25362 FILLER_70_657
*25363 FILLER_70_669
*25364 FILLER_70_681
*25365 FILLER_70_693
*25366 FILLER_70_699
*25367 FILLER_70_7
*25368 FILLER_70_701
*25369 FILLER_70_713
*25370 FILLER_70_725
*25371 FILLER_70_737
*25372 FILLER_70_749
*25373 FILLER_70_755
*25374 FILLER_70_757
*25375 FILLER_70_769
*25376 FILLER_70_77
*25377 FILLER_70_781
*25378 FILLER_70_793
*25379 FILLER_70_805
*25380 FILLER_70_811
*25381 FILLER_70_813
*25382 FILLER_70_825
*25383 FILLER_70_83
*25384 FILLER_70_837
*25385 FILLER_70_849
*25386 FILLER_70_85
*25387 FILLER_70_861
*25388 FILLER_70_867
*25389 FILLER_70_869
*25390 FILLER_70_881
*25391 FILLER_70_893
*25392 FILLER_70_905
*25393 FILLER_70_917
*25394 FILLER_70_923
*25395 FILLER_70_925
*25396 FILLER_70_937
*25397 FILLER_70_949
*25398 FILLER_70_961
*25399 FILLER_70_97
*25400 FILLER_70_973
*25401 FILLER_70_979
*25402 FILLER_70_981
*25403 FILLER_70_993
*25404 FILLER_71_1001
*25405 FILLER_71_1007
*25406 FILLER_71_1009
*25407 FILLER_71_1021
*25408 FILLER_71_1033
*25409 FILLER_71_1045
*25410 FILLER_71_105
*25411 FILLER_71_1057
*25412 FILLER_71_1063
*25413 FILLER_71_1065
*25414 FILLER_71_1077
*25415 FILLER_71_1089
*25416 FILLER_71_1101
*25417 FILLER_71_111
*25418 FILLER_71_1113
*25419 FILLER_71_1119
*25420 FILLER_71_1121
*25421 FILLER_71_113
*25422 FILLER_71_1133
*25423 FILLER_71_1145
*25424 FILLER_71_1157
*25425 FILLER_71_1169
*25426 FILLER_71_1175
*25427 FILLER_71_1177
*25428 FILLER_71_1189
*25429 FILLER_71_1201
*25430 FILLER_71_1213
*25431 FILLER_71_1225
*25432 FILLER_71_1231
*25433 FILLER_71_1233
*25434 FILLER_71_1245
*25435 FILLER_71_125
*25436 FILLER_71_1257
*25437 FILLER_71_1269
*25438 FILLER_71_1276
*25439 FILLER_71_137
*25440 FILLER_71_149
*25441 FILLER_71_161
*25442 FILLER_71_167
*25443 FILLER_71_169
*25444 FILLER_71_181
*25445 FILLER_71_19
*25446 FILLER_71_193
*25447 FILLER_71_205
*25448 FILLER_71_217
*25449 FILLER_71_223
*25450 FILLER_71_225
*25451 FILLER_71_237
*25452 FILLER_71_249
*25453 FILLER_71_261
*25454 FILLER_71_273
*25455 FILLER_71_279
*25456 FILLER_71_281
*25457 FILLER_71_293
*25458 FILLER_71_3
*25459 FILLER_71_305
*25460 FILLER_71_31
*25461 FILLER_71_317
*25462 FILLER_71_329
*25463 FILLER_71_335
*25464 FILLER_71_337
*25465 FILLER_71_349
*25466 FILLER_71_361
*25467 FILLER_71_373
*25468 FILLER_71_385
*25469 FILLER_71_391
*25470 FILLER_71_393
*25471 FILLER_71_405
*25472 FILLER_71_417
*25473 FILLER_71_429
*25474 FILLER_71_43
*25475 FILLER_71_441
*25476 FILLER_71_447
*25477 FILLER_71_449
*25478 FILLER_71_461
*25479 FILLER_71_473
*25480 FILLER_71_485
*25481 FILLER_71_497
*25482 FILLER_71_503
*25483 FILLER_71_505
*25484 FILLER_71_517
*25485 FILLER_71_529
*25486 FILLER_71_541
*25487 FILLER_71_55
*25488 FILLER_71_553
*25489 FILLER_71_559
*25490 FILLER_71_561
*25491 FILLER_71_57
*25492 FILLER_71_573
*25493 FILLER_71_585
*25494 FILLER_71_597
*25495 FILLER_71_609
*25496 FILLER_71_615
*25497 FILLER_71_617
*25498 FILLER_71_629
*25499 FILLER_71_641
*25500 FILLER_71_653
*25501 FILLER_71_665
*25502 FILLER_71_671
*25503 FILLER_71_673
*25504 FILLER_71_685
*25505 FILLER_71_69
*25506 FILLER_71_697
*25507 FILLER_71_7
*25508 FILLER_71_709
*25509 FILLER_71_721
*25510 FILLER_71_727
*25511 FILLER_71_729
*25512 FILLER_71_741
*25513 FILLER_71_753
*25514 FILLER_71_765
*25515 FILLER_71_777
*25516 FILLER_71_783
*25517 FILLER_71_785
*25518 FILLER_71_797
*25519 FILLER_71_809
*25520 FILLER_71_81
*25521 FILLER_71_821
*25522 FILLER_71_833
*25523 FILLER_71_839
*25524 FILLER_71_841
*25525 FILLER_71_853
*25526 FILLER_71_865
*25527 FILLER_71_877
*25528 FILLER_71_889
*25529 FILLER_71_895
*25530 FILLER_71_897
*25531 FILLER_71_909
*25532 FILLER_71_921
*25533 FILLER_71_93
*25534 FILLER_71_933
*25535 FILLER_71_945
*25536 FILLER_71_951
*25537 FILLER_71_953
*25538 FILLER_71_965
*25539 FILLER_71_977
*25540 FILLER_71_989
*25541 FILLER_72_1005
*25542 FILLER_72_1017
*25543 FILLER_72_1029
*25544 FILLER_72_1035
*25545 FILLER_72_1037
*25546 FILLER_72_1049
*25547 FILLER_72_1061
*25548 FILLER_72_1073
*25549 FILLER_72_1085
*25550 FILLER_72_109
*25551 FILLER_72_1091
*25552 FILLER_72_1093
*25553 FILLER_72_1105
*25554 FILLER_72_1117
*25555 FILLER_72_1129
*25556 FILLER_72_1141
*25557 FILLER_72_1147
*25558 FILLER_72_1149
*25559 FILLER_72_1161
*25560 FILLER_72_1173
*25561 FILLER_72_1185
*25562 FILLER_72_1197
*25563 FILLER_72_1203
*25564 FILLER_72_1205
*25565 FILLER_72_121
*25566 FILLER_72_1217
*25567 FILLER_72_1229
*25568 FILLER_72_1241
*25569 FILLER_72_1253
*25570 FILLER_72_1259
*25571 FILLER_72_1261
*25572 FILLER_72_1276
*25573 FILLER_72_133
*25574 FILLER_72_139
*25575 FILLER_72_141
*25576 FILLER_72_153
*25577 FILLER_72_165
*25578 FILLER_72_177
*25579 FILLER_72_189
*25580 FILLER_72_19
*25581 FILLER_72_195
*25582 FILLER_72_197
*25583 FILLER_72_209
*25584 FILLER_72_221
*25585 FILLER_72_233
*25586 FILLER_72_245
*25587 FILLER_72_251
*25588 FILLER_72_253
*25589 FILLER_72_265
*25590 FILLER_72_27
*25591 FILLER_72_277
*25592 FILLER_72_289
*25593 FILLER_72_29
*25594 FILLER_72_3
*25595 FILLER_72_301
*25596 FILLER_72_307
*25597 FILLER_72_309
*25598 FILLER_72_321
*25599 FILLER_72_333
*25600 FILLER_72_345
*25601 FILLER_72_357
*25602 FILLER_72_363
*25603 FILLER_72_365
*25604 FILLER_72_377
*25605 FILLER_72_389
*25606 FILLER_72_401
*25607 FILLER_72_41
*25608 FILLER_72_413
*25609 FILLER_72_419
*25610 FILLER_72_421
*25611 FILLER_72_433
*25612 FILLER_72_445
*25613 FILLER_72_457
*25614 FILLER_72_469
*25615 FILLER_72_475
*25616 FILLER_72_477
*25617 FILLER_72_489
*25618 FILLER_72_501
*25619 FILLER_72_513
*25620 FILLER_72_525
*25621 FILLER_72_53
*25622 FILLER_72_531
*25623 FILLER_72_533
*25624 FILLER_72_545
*25625 FILLER_72_557
*25626 FILLER_72_569
*25627 FILLER_72_581
*25628 FILLER_72_587
*25629 FILLER_72_589
*25630 FILLER_72_601
*25631 FILLER_72_613
*25632 FILLER_72_625
*25633 FILLER_72_637
*25634 FILLER_72_643
*25635 FILLER_72_645
*25636 FILLER_72_65
*25637 FILLER_72_657
*25638 FILLER_72_669
*25639 FILLER_72_681
*25640 FILLER_72_693
*25641 FILLER_72_699
*25642 FILLER_72_7
*25643 FILLER_72_701
*25644 FILLER_72_713
*25645 FILLER_72_725
*25646 FILLER_72_737
*25647 FILLER_72_749
*25648 FILLER_72_755
*25649 FILLER_72_757
*25650 FILLER_72_769
*25651 FILLER_72_77
*25652 FILLER_72_781
*25653 FILLER_72_793
*25654 FILLER_72_805
*25655 FILLER_72_811
*25656 FILLER_72_813
*25657 FILLER_72_825
*25658 FILLER_72_83
*25659 FILLER_72_837
*25660 FILLER_72_849
*25661 FILLER_72_85
*25662 FILLER_72_861
*25663 FILLER_72_867
*25664 FILLER_72_869
*25665 FILLER_72_881
*25666 FILLER_72_893
*25667 FILLER_72_905
*25668 FILLER_72_917
*25669 FILLER_72_923
*25670 FILLER_72_925
*25671 FILLER_72_937
*25672 FILLER_72_949
*25673 FILLER_72_961
*25674 FILLER_72_97
*25675 FILLER_72_973
*25676 FILLER_72_979
*25677 FILLER_72_981
*25678 FILLER_72_993
*25679 FILLER_73_1001
*25680 FILLER_73_1007
*25681 FILLER_73_1009
*25682 FILLER_73_1021
*25683 FILLER_73_1033
*25684 FILLER_73_1045
*25685 FILLER_73_105
*25686 FILLER_73_1057
*25687 FILLER_73_1063
*25688 FILLER_73_1065
*25689 FILLER_73_1077
*25690 FILLER_73_1089
*25691 FILLER_73_1101
*25692 FILLER_73_111
*25693 FILLER_73_1113
*25694 FILLER_73_1119
*25695 FILLER_73_1121
*25696 FILLER_73_113
*25697 FILLER_73_1133
*25698 FILLER_73_1145
*25699 FILLER_73_1157
*25700 FILLER_73_1169
*25701 FILLER_73_1175
*25702 FILLER_73_1177
*25703 FILLER_73_1189
*25704 FILLER_73_1201
*25705 FILLER_73_1213
*25706 FILLER_73_1225
*25707 FILLER_73_1231
*25708 FILLER_73_1233
*25709 FILLER_73_1245
*25710 FILLER_73_125
*25711 FILLER_73_1257
*25712 FILLER_73_1269
*25713 FILLER_73_137
*25714 FILLER_73_149
*25715 FILLER_73_15
*25716 FILLER_73_161
*25717 FILLER_73_167
*25718 FILLER_73_169
*25719 FILLER_73_181
*25720 FILLER_73_193
*25721 FILLER_73_205
*25722 FILLER_73_217
*25723 FILLER_73_223
*25724 FILLER_73_225
*25725 FILLER_73_237
*25726 FILLER_73_249
*25727 FILLER_73_261
*25728 FILLER_73_27
*25729 FILLER_73_273
*25730 FILLER_73_279
*25731 FILLER_73_281
*25732 FILLER_73_293
*25733 FILLER_73_3
*25734 FILLER_73_305
*25735 FILLER_73_317
*25736 FILLER_73_329
*25737 FILLER_73_335
*25738 FILLER_73_337
*25739 FILLER_73_349
*25740 FILLER_73_361
*25741 FILLER_73_373
*25742 FILLER_73_385
*25743 FILLER_73_39
*25744 FILLER_73_391
*25745 FILLER_73_393
*25746 FILLER_73_405
*25747 FILLER_73_417
*25748 FILLER_73_429
*25749 FILLER_73_441
*25750 FILLER_73_447
*25751 FILLER_73_449
*25752 FILLER_73_461
*25753 FILLER_73_473
*25754 FILLER_73_485
*25755 FILLER_73_497
*25756 FILLER_73_503
*25757 FILLER_73_505
*25758 FILLER_73_51
*25759 FILLER_73_517
*25760 FILLER_73_529
*25761 FILLER_73_541
*25762 FILLER_73_55
*25763 FILLER_73_553
*25764 FILLER_73_559
*25765 FILLER_73_561
*25766 FILLER_73_57
*25767 FILLER_73_573
*25768 FILLER_73_585
*25769 FILLER_73_597
*25770 FILLER_73_609
*25771 FILLER_73_615
*25772 FILLER_73_617
*25773 FILLER_73_629
*25774 FILLER_73_641
*25775 FILLER_73_653
*25776 FILLER_73_665
*25777 FILLER_73_671
*25778 FILLER_73_673
*25779 FILLER_73_685
*25780 FILLER_73_69
*25781 FILLER_73_697
*25782 FILLER_73_709
*25783 FILLER_73_721
*25784 FILLER_73_727
*25785 FILLER_73_729
*25786 FILLER_73_741
*25787 FILLER_73_753
*25788 FILLER_73_765
*25789 FILLER_73_777
*25790 FILLER_73_783
*25791 FILLER_73_785
*25792 FILLER_73_797
*25793 FILLER_73_809
*25794 FILLER_73_81
*25795 FILLER_73_821
*25796 FILLER_73_833
*25797 FILLER_73_839
*25798 FILLER_73_841
*25799 FILLER_73_853
*25800 FILLER_73_865
*25801 FILLER_73_877
*25802 FILLER_73_889
*25803 FILLER_73_895
*25804 FILLER_73_897
*25805 FILLER_73_909
*25806 FILLER_73_921
*25807 FILLER_73_93
*25808 FILLER_73_933
*25809 FILLER_73_945
*25810 FILLER_73_951
*25811 FILLER_73_953
*25812 FILLER_73_965
*25813 FILLER_73_977
*25814 FILLER_73_989
*25815 FILLER_74_1005
*25816 FILLER_74_1017
*25817 FILLER_74_1029
*25818 FILLER_74_1035
*25819 FILLER_74_1037
*25820 FILLER_74_1049
*25821 FILLER_74_1061
*25822 FILLER_74_1073
*25823 FILLER_74_1085
*25824 FILLER_74_109
*25825 FILLER_74_1091
*25826 FILLER_74_1093
*25827 FILLER_74_1105
*25828 FILLER_74_1117
*25829 FILLER_74_1129
*25830 FILLER_74_1141
*25831 FILLER_74_1147
*25832 FILLER_74_1149
*25833 FILLER_74_1161
*25834 FILLER_74_1173
*25835 FILLER_74_1185
*25836 FILLER_74_1197
*25837 FILLER_74_1203
*25838 FILLER_74_1205
*25839 FILLER_74_121
*25840 FILLER_74_1217
*25841 FILLER_74_1229
*25842 FILLER_74_1241
*25843 FILLER_74_1253
*25844 FILLER_74_1259
*25845 FILLER_74_1261
*25846 FILLER_74_1276
*25847 FILLER_74_133
*25848 FILLER_74_139
*25849 FILLER_74_141
*25850 FILLER_74_153
*25851 FILLER_74_165
*25852 FILLER_74_177
*25853 FILLER_74_189
*25854 FILLER_74_19
*25855 FILLER_74_195
*25856 FILLER_74_197
*25857 FILLER_74_209
*25858 FILLER_74_221
*25859 FILLER_74_233
*25860 FILLER_74_245
*25861 FILLER_74_251
*25862 FILLER_74_253
*25863 FILLER_74_265
*25864 FILLER_74_27
*25865 FILLER_74_277
*25866 FILLER_74_289
*25867 FILLER_74_29
*25868 FILLER_74_3
*25869 FILLER_74_301
*25870 FILLER_74_307
*25871 FILLER_74_309
*25872 FILLER_74_321
*25873 FILLER_74_333
*25874 FILLER_74_345
*25875 FILLER_74_357
*25876 FILLER_74_363
*25877 FILLER_74_365
*25878 FILLER_74_377
*25879 FILLER_74_389
*25880 FILLER_74_401
*25881 FILLER_74_41
*25882 FILLER_74_413
*25883 FILLER_74_419
*25884 FILLER_74_421
*25885 FILLER_74_433
*25886 FILLER_74_445
*25887 FILLER_74_457
*25888 FILLER_74_469
*25889 FILLER_74_475
*25890 FILLER_74_477
*25891 FILLER_74_489
*25892 FILLER_74_501
*25893 FILLER_74_513
*25894 FILLER_74_525
*25895 FILLER_74_53
*25896 FILLER_74_531
*25897 FILLER_74_533
*25898 FILLER_74_545
*25899 FILLER_74_557
*25900 FILLER_74_569
*25901 FILLER_74_581
*25902 FILLER_74_587
*25903 FILLER_74_589
*25904 FILLER_74_601
*25905 FILLER_74_613
*25906 FILLER_74_625
*25907 FILLER_74_637
*25908 FILLER_74_643
*25909 FILLER_74_645
*25910 FILLER_74_65
*25911 FILLER_74_657
*25912 FILLER_74_669
*25913 FILLER_74_681
*25914 FILLER_74_693
*25915 FILLER_74_699
*25916 FILLER_74_7
*25917 FILLER_74_701
*25918 FILLER_74_713
*25919 FILLER_74_725
*25920 FILLER_74_737
*25921 FILLER_74_749
*25922 FILLER_74_755
*25923 FILLER_74_757
*25924 FILLER_74_769
*25925 FILLER_74_77
*25926 FILLER_74_781
*25927 FILLER_74_793
*25928 FILLER_74_805
*25929 FILLER_74_811
*25930 FILLER_74_813
*25931 FILLER_74_825
*25932 FILLER_74_83
*25933 FILLER_74_837
*25934 FILLER_74_849
*25935 FILLER_74_85
*25936 FILLER_74_861
*25937 FILLER_74_867
*25938 FILLER_74_869
*25939 FILLER_74_881
*25940 FILLER_74_893
*25941 FILLER_74_905
*25942 FILLER_74_917
*25943 FILLER_74_923
*25944 FILLER_74_925
*25945 FILLER_74_937
*25946 FILLER_74_949
*25947 FILLER_74_961
*25948 FILLER_74_97
*25949 FILLER_74_973
*25950 FILLER_74_979
*25951 FILLER_74_981
*25952 FILLER_74_993
*25953 FILLER_75_1001
*25954 FILLER_75_1007
*25955 FILLER_75_1009
*25956 FILLER_75_1021
*25957 FILLER_75_1033
*25958 FILLER_75_1045
*25959 FILLER_75_105
*25960 FILLER_75_1057
*25961 FILLER_75_1063
*25962 FILLER_75_1065
*25963 FILLER_75_1077
*25964 FILLER_75_1089
*25965 FILLER_75_1101
*25966 FILLER_75_111
*25967 FILLER_75_1113
*25968 FILLER_75_1119
*25969 FILLER_75_1121
*25970 FILLER_75_113
*25971 FILLER_75_1133
*25972 FILLER_75_1145
*25973 FILLER_75_1157
*25974 FILLER_75_1169
*25975 FILLER_75_1175
*25976 FILLER_75_1177
*25977 FILLER_75_1189
*25978 FILLER_75_1201
*25979 FILLER_75_1213
*25980 FILLER_75_1225
*25981 FILLER_75_1231
*25982 FILLER_75_1233
*25983 FILLER_75_1245
*25984 FILLER_75_125
*25985 FILLER_75_1257
*25986 FILLER_75_1269
*25987 FILLER_75_1276
*25988 FILLER_75_137
*25989 FILLER_75_149
*25990 FILLER_75_161
*25991 FILLER_75_167
*25992 FILLER_75_169
*25993 FILLER_75_181
*25994 FILLER_75_19
*25995 FILLER_75_193
*25996 FILLER_75_205
*25997 FILLER_75_217
*25998 FILLER_75_223
*25999 FILLER_75_225
*26000 FILLER_75_237
*26001 FILLER_75_249
*26002 FILLER_75_261
*26003 FILLER_75_273
*26004 FILLER_75_279
*26005 FILLER_75_281
*26006 FILLER_75_293
*26007 FILLER_75_3
*26008 FILLER_75_305
*26009 FILLER_75_31
*26010 FILLER_75_317
*26011 FILLER_75_329
*26012 FILLER_75_335
*26013 FILLER_75_337
*26014 FILLER_75_349
*26015 FILLER_75_361
*26016 FILLER_75_373
*26017 FILLER_75_385
*26018 FILLER_75_391
*26019 FILLER_75_393
*26020 FILLER_75_405
*26021 FILLER_75_417
*26022 FILLER_75_429
*26023 FILLER_75_43
*26024 FILLER_75_441
*26025 FILLER_75_447
*26026 FILLER_75_449
*26027 FILLER_75_461
*26028 FILLER_75_473
*26029 FILLER_75_485
*26030 FILLER_75_497
*26031 FILLER_75_503
*26032 FILLER_75_505
*26033 FILLER_75_517
*26034 FILLER_75_529
*26035 FILLER_75_541
*26036 FILLER_75_55
*26037 FILLER_75_553
*26038 FILLER_75_559
*26039 FILLER_75_561
*26040 FILLER_75_57
*26041 FILLER_75_573
*26042 FILLER_75_585
*26043 FILLER_75_597
*26044 FILLER_75_609
*26045 FILLER_75_615
*26046 FILLER_75_617
*26047 FILLER_75_629
*26048 FILLER_75_641
*26049 FILLER_75_653
*26050 FILLER_75_665
*26051 FILLER_75_671
*26052 FILLER_75_673
*26053 FILLER_75_685
*26054 FILLER_75_69
*26055 FILLER_75_697
*26056 FILLER_75_7
*26057 FILLER_75_709
*26058 FILLER_75_721
*26059 FILLER_75_727
*26060 FILLER_75_729
*26061 FILLER_75_741
*26062 FILLER_75_753
*26063 FILLER_75_765
*26064 FILLER_75_777
*26065 FILLER_75_783
*26066 FILLER_75_785
*26067 FILLER_75_797
*26068 FILLER_75_809
*26069 FILLER_75_81
*26070 FILLER_75_821
*26071 FILLER_75_833
*26072 FILLER_75_839
*26073 FILLER_75_841
*26074 FILLER_75_853
*26075 FILLER_75_865
*26076 FILLER_75_877
*26077 FILLER_75_889
*26078 FILLER_75_895
*26079 FILLER_75_897
*26080 FILLER_75_909
*26081 FILLER_75_921
*26082 FILLER_75_93
*26083 FILLER_75_933
*26084 FILLER_75_945
*26085 FILLER_75_951
*26086 FILLER_75_953
*26087 FILLER_75_965
*26088 FILLER_75_977
*26089 FILLER_75_989
*26090 FILLER_76_1005
*26091 FILLER_76_1017
*26092 FILLER_76_1029
*26093 FILLER_76_1035
*26094 FILLER_76_1037
*26095 FILLER_76_1049
*26096 FILLER_76_1061
*26097 FILLER_76_1073
*26098 FILLER_76_1085
*26099 FILLER_76_109
*26100 FILLER_76_1091
*26101 FILLER_76_1093
*26102 FILLER_76_1105
*26103 FILLER_76_1117
*26104 FILLER_76_1129
*26105 FILLER_76_1141
*26106 FILLER_76_1147
*26107 FILLER_76_1149
*26108 FILLER_76_1161
*26109 FILLER_76_1173
*26110 FILLER_76_1185
*26111 FILLER_76_1197
*26112 FILLER_76_1203
*26113 FILLER_76_1205
*26114 FILLER_76_121
*26115 FILLER_76_1217
*26116 FILLER_76_1229
*26117 FILLER_76_1241
*26118 FILLER_76_1253
*26119 FILLER_76_1259
*26120 FILLER_76_1261
*26121 FILLER_76_1276
*26122 FILLER_76_133
*26123 FILLER_76_139
*26124 FILLER_76_141
*26125 FILLER_76_153
*26126 FILLER_76_165
*26127 FILLER_76_177
*26128 FILLER_76_189
*26129 FILLER_76_19
*26130 FILLER_76_195
*26131 FILLER_76_197
*26132 FILLER_76_209
*26133 FILLER_76_221
*26134 FILLER_76_233
*26135 FILLER_76_245
*26136 FILLER_76_251
*26137 FILLER_76_253
*26138 FILLER_76_265
*26139 FILLER_76_27
*26140 FILLER_76_277
*26141 FILLER_76_289
*26142 FILLER_76_29
*26143 FILLER_76_3
*26144 FILLER_76_301
*26145 FILLER_76_307
*26146 FILLER_76_309
*26147 FILLER_76_321
*26148 FILLER_76_333
*26149 FILLER_76_345
*26150 FILLER_76_357
*26151 FILLER_76_363
*26152 FILLER_76_365
*26153 FILLER_76_377
*26154 FILLER_76_389
*26155 FILLER_76_401
*26156 FILLER_76_41
*26157 FILLER_76_413
*26158 FILLER_76_419
*26159 FILLER_76_421
*26160 FILLER_76_433
*26161 FILLER_76_445
*26162 FILLER_76_457
*26163 FILLER_76_469
*26164 FILLER_76_475
*26165 FILLER_76_477
*26166 FILLER_76_489
*26167 FILLER_76_501
*26168 FILLER_76_513
*26169 FILLER_76_525
*26170 FILLER_76_53
*26171 FILLER_76_531
*26172 FILLER_76_533
*26173 FILLER_76_545
*26174 FILLER_76_557
*26175 FILLER_76_569
*26176 FILLER_76_581
*26177 FILLER_76_587
*26178 FILLER_76_589
*26179 FILLER_76_601
*26180 FILLER_76_613
*26181 FILLER_76_625
*26182 FILLER_76_637
*26183 FILLER_76_643
*26184 FILLER_76_645
*26185 FILLER_76_65
*26186 FILLER_76_657
*26187 FILLER_76_669
*26188 FILLER_76_681
*26189 FILLER_76_693
*26190 FILLER_76_699
*26191 FILLER_76_7
*26192 FILLER_76_701
*26193 FILLER_76_713
*26194 FILLER_76_725
*26195 FILLER_76_737
*26196 FILLER_76_749
*26197 FILLER_76_755
*26198 FILLER_76_757
*26199 FILLER_76_769
*26200 FILLER_76_77
*26201 FILLER_76_781
*26202 FILLER_76_793
*26203 FILLER_76_805
*26204 FILLER_76_811
*26205 FILLER_76_813
*26206 FILLER_76_825
*26207 FILLER_76_83
*26208 FILLER_76_837
*26209 FILLER_76_849
*26210 FILLER_76_85
*26211 FILLER_76_861
*26212 FILLER_76_867
*26213 FILLER_76_869
*26214 FILLER_76_881
*26215 FILLER_76_893
*26216 FILLER_76_905
*26217 FILLER_76_917
*26218 FILLER_76_923
*26219 FILLER_76_925
*26220 FILLER_76_937
*26221 FILLER_76_949
*26222 FILLER_76_961
*26223 FILLER_76_97
*26224 FILLER_76_973
*26225 FILLER_76_979
*26226 FILLER_76_981
*26227 FILLER_76_993
*26228 FILLER_77_1001
*26229 FILLER_77_1007
*26230 FILLER_77_1009
*26231 FILLER_77_1021
*26232 FILLER_77_1033
*26233 FILLER_77_1045
*26234 FILLER_77_105
*26235 FILLER_77_1057
*26236 FILLER_77_1063
*26237 FILLER_77_1065
*26238 FILLER_77_1077
*26239 FILLER_77_1089
*26240 FILLER_77_1101
*26241 FILLER_77_111
*26242 FILLER_77_1113
*26243 FILLER_77_1119
*26244 FILLER_77_1121
*26245 FILLER_77_113
*26246 FILLER_77_1133
*26247 FILLER_77_1145
*26248 FILLER_77_1157
*26249 FILLER_77_1169
*26250 FILLER_77_1175
*26251 FILLER_77_1177
*26252 FILLER_77_1189
*26253 FILLER_77_1201
*26254 FILLER_77_1213
*26255 FILLER_77_1225
*26256 FILLER_77_1231
*26257 FILLER_77_1233
*26258 FILLER_77_1245
*26259 FILLER_77_125
*26260 FILLER_77_1257
*26261 FILLER_77_1269
*26262 FILLER_77_1276
*26263 FILLER_77_137
*26264 FILLER_77_149
*26265 FILLER_77_161
*26266 FILLER_77_167
*26267 FILLER_77_169
*26268 FILLER_77_181
*26269 FILLER_77_19
*26270 FILLER_77_193
*26271 FILLER_77_205
*26272 FILLER_77_217
*26273 FILLER_77_223
*26274 FILLER_77_225
*26275 FILLER_77_237
*26276 FILLER_77_249
*26277 FILLER_77_261
*26278 FILLER_77_273
*26279 FILLER_77_279
*26280 FILLER_77_281
*26281 FILLER_77_293
*26282 FILLER_77_3
*26283 FILLER_77_305
*26284 FILLER_77_31
*26285 FILLER_77_317
*26286 FILLER_77_329
*26287 FILLER_77_335
*26288 FILLER_77_337
*26289 FILLER_77_349
*26290 FILLER_77_361
*26291 FILLER_77_373
*26292 FILLER_77_385
*26293 FILLER_77_391
*26294 FILLER_77_393
*26295 FILLER_77_405
*26296 FILLER_77_417
*26297 FILLER_77_429
*26298 FILLER_77_43
*26299 FILLER_77_441
*26300 FILLER_77_447
*26301 FILLER_77_449
*26302 FILLER_77_461
*26303 FILLER_77_473
*26304 FILLER_77_485
*26305 FILLER_77_497
*26306 FILLER_77_503
*26307 FILLER_77_505
*26308 FILLER_77_517
*26309 FILLER_77_529
*26310 FILLER_77_541
*26311 FILLER_77_55
*26312 FILLER_77_553
*26313 FILLER_77_559
*26314 FILLER_77_561
*26315 FILLER_77_57
*26316 FILLER_77_573
*26317 FILLER_77_585
*26318 FILLER_77_597
*26319 FILLER_77_609
*26320 FILLER_77_615
*26321 FILLER_77_617
*26322 FILLER_77_629
*26323 FILLER_77_641
*26324 FILLER_77_653
*26325 FILLER_77_665
*26326 FILLER_77_671
*26327 FILLER_77_673
*26328 FILLER_77_685
*26329 FILLER_77_69
*26330 FILLER_77_697
*26331 FILLER_77_7
*26332 FILLER_77_709
*26333 FILLER_77_721
*26334 FILLER_77_727
*26335 FILLER_77_729
*26336 FILLER_77_741
*26337 FILLER_77_753
*26338 FILLER_77_765
*26339 FILLER_77_777
*26340 FILLER_77_783
*26341 FILLER_77_785
*26342 FILLER_77_797
*26343 FILLER_77_809
*26344 FILLER_77_81
*26345 FILLER_77_821
*26346 FILLER_77_833
*26347 FILLER_77_839
*26348 FILLER_77_841
*26349 FILLER_77_853
*26350 FILLER_77_865
*26351 FILLER_77_877
*26352 FILLER_77_889
*26353 FILLER_77_895
*26354 FILLER_77_897
*26355 FILLER_77_909
*26356 FILLER_77_921
*26357 FILLER_77_93
*26358 FILLER_77_933
*26359 FILLER_77_945
*26360 FILLER_77_951
*26361 FILLER_77_953
*26362 FILLER_77_965
*26363 FILLER_77_977
*26364 FILLER_77_989
*26365 FILLER_78_1005
*26366 FILLER_78_1017
*26367 FILLER_78_1029
*26368 FILLER_78_1035
*26369 FILLER_78_1037
*26370 FILLER_78_1049
*26371 FILLER_78_1061
*26372 FILLER_78_1073
*26373 FILLER_78_1085
*26374 FILLER_78_109
*26375 FILLER_78_1091
*26376 FILLER_78_1093
*26377 FILLER_78_1105
*26378 FILLER_78_1117
*26379 FILLER_78_1129
*26380 FILLER_78_1141
*26381 FILLER_78_1147
*26382 FILLER_78_1149
*26383 FILLER_78_1161
*26384 FILLER_78_1173
*26385 FILLER_78_1185
*26386 FILLER_78_1197
*26387 FILLER_78_1203
*26388 FILLER_78_1205
*26389 FILLER_78_121
*26390 FILLER_78_1217
*26391 FILLER_78_1229
*26392 FILLER_78_1241
*26393 FILLER_78_1253
*26394 FILLER_78_1259
*26395 FILLER_78_1261
*26396 FILLER_78_1273
*26397 FILLER_78_133
*26398 FILLER_78_139
*26399 FILLER_78_141
*26400 FILLER_78_15
*26401 FILLER_78_153
*26402 FILLER_78_165
*26403 FILLER_78_177
*26404 FILLER_78_189
*26405 FILLER_78_195
*26406 FILLER_78_197
*26407 FILLER_78_209
*26408 FILLER_78_221
*26409 FILLER_78_233
*26410 FILLER_78_245
*26411 FILLER_78_251
*26412 FILLER_78_253
*26413 FILLER_78_265
*26414 FILLER_78_27
*26415 FILLER_78_277
*26416 FILLER_78_289
*26417 FILLER_78_29
*26418 FILLER_78_3
*26419 FILLER_78_301
*26420 FILLER_78_307
*26421 FILLER_78_309
*26422 FILLER_78_321
*26423 FILLER_78_333
*26424 FILLER_78_345
*26425 FILLER_78_357
*26426 FILLER_78_363
*26427 FILLER_78_365
*26428 FILLER_78_377
*26429 FILLER_78_389
*26430 FILLER_78_401
*26431 FILLER_78_41
*26432 FILLER_78_413
*26433 FILLER_78_419
*26434 FILLER_78_421
*26435 FILLER_78_433
*26436 FILLER_78_445
*26437 FILLER_78_457
*26438 FILLER_78_469
*26439 FILLER_78_475
*26440 FILLER_78_477
*26441 FILLER_78_489
*26442 FILLER_78_501
*26443 FILLER_78_513
*26444 FILLER_78_525
*26445 FILLER_78_53
*26446 FILLER_78_531
*26447 FILLER_78_533
*26448 FILLER_78_545
*26449 FILLER_78_557
*26450 FILLER_78_569
*26451 FILLER_78_581
*26452 FILLER_78_587
*26453 FILLER_78_589
*26454 FILLER_78_601
*26455 FILLER_78_613
*26456 FILLER_78_625
*26457 FILLER_78_637
*26458 FILLER_78_643
*26459 FILLER_78_645
*26460 FILLER_78_65
*26461 FILLER_78_657
*26462 FILLER_78_669
*26463 FILLER_78_681
*26464 FILLER_78_693
*26465 FILLER_78_699
*26466 FILLER_78_701
*26467 FILLER_78_713
*26468 FILLER_78_725
*26469 FILLER_78_737
*26470 FILLER_78_749
*26471 FILLER_78_755
*26472 FILLER_78_757
*26473 FILLER_78_769
*26474 FILLER_78_77
*26475 FILLER_78_781
*26476 FILLER_78_793
*26477 FILLER_78_805
*26478 FILLER_78_811
*26479 FILLER_78_813
*26480 FILLER_78_825
*26481 FILLER_78_83
*26482 FILLER_78_837
*26483 FILLER_78_849
*26484 FILLER_78_85
*26485 FILLER_78_861
*26486 FILLER_78_867
*26487 FILLER_78_869
*26488 FILLER_78_881
*26489 FILLER_78_893
*26490 FILLER_78_905
*26491 FILLER_78_917
*26492 FILLER_78_923
*26493 FILLER_78_925
*26494 FILLER_78_937
*26495 FILLER_78_949
*26496 FILLER_78_961
*26497 FILLER_78_97
*26498 FILLER_78_973
*26499 FILLER_78_979
*26500 FILLER_78_981
*26501 FILLER_78_993
*26502 FILLER_79_1001
*26503 FILLER_79_1007
*26504 FILLER_79_1009
*26505 FILLER_79_1021
*26506 FILLER_79_1033
*26507 FILLER_79_1045
*26508 FILLER_79_105
*26509 FILLER_79_1057
*26510 FILLER_79_1063
*26511 FILLER_79_1065
*26512 FILLER_79_1077
*26513 FILLER_79_1089
*26514 FILLER_79_1101
*26515 FILLER_79_111
*26516 FILLER_79_1113
*26517 FILLER_79_1119
*26518 FILLER_79_1121
*26519 FILLER_79_113
*26520 FILLER_79_1133
*26521 FILLER_79_1145
*26522 FILLER_79_1157
*26523 FILLER_79_1169
*26524 FILLER_79_1175
*26525 FILLER_79_1177
*26526 FILLER_79_1189
*26527 FILLER_79_1201
*26528 FILLER_79_1213
*26529 FILLER_79_1225
*26530 FILLER_79_1231
*26531 FILLER_79_1233
*26532 FILLER_79_1245
*26533 FILLER_79_125
*26534 FILLER_79_1257
*26535 FILLER_79_1269
*26536 FILLER_79_1276
*26537 FILLER_79_137
*26538 FILLER_79_149
*26539 FILLER_79_161
*26540 FILLER_79_167
*26541 FILLER_79_169
*26542 FILLER_79_181
*26543 FILLER_79_19
*26544 FILLER_79_193
*26545 FILLER_79_205
*26546 FILLER_79_217
*26547 FILLER_79_223
*26548 FILLER_79_225
*26549 FILLER_79_237
*26550 FILLER_79_249
*26551 FILLER_79_261
*26552 FILLER_79_273
*26553 FILLER_79_279
*26554 FILLER_79_281
*26555 FILLER_79_293
*26556 FILLER_79_3
*26557 FILLER_79_305
*26558 FILLER_79_31
*26559 FILLER_79_317
*26560 FILLER_79_329
*26561 FILLER_79_335
*26562 FILLER_79_337
*26563 FILLER_79_349
*26564 FILLER_79_361
*26565 FILLER_79_373
*26566 FILLER_79_385
*26567 FILLER_79_391
*26568 FILLER_79_393
*26569 FILLER_79_405
*26570 FILLER_79_417
*26571 FILLER_79_429
*26572 FILLER_79_43
*26573 FILLER_79_441
*26574 FILLER_79_447
*26575 FILLER_79_449
*26576 FILLER_79_461
*26577 FILLER_79_473
*26578 FILLER_79_485
*26579 FILLER_79_497
*26580 FILLER_79_503
*26581 FILLER_79_505
*26582 FILLER_79_517
*26583 FILLER_79_529
*26584 FILLER_79_541
*26585 FILLER_79_55
*26586 FILLER_79_553
*26587 FILLER_79_559
*26588 FILLER_79_561
*26589 FILLER_79_57
*26590 FILLER_79_573
*26591 FILLER_79_585
*26592 FILLER_79_597
*26593 FILLER_79_609
*26594 FILLER_79_615
*26595 FILLER_79_617
*26596 FILLER_79_629
*26597 FILLER_79_635
*26598 FILLER_79_638
*26599 FILLER_79_644
*26600 FILLER_79_656
*26601 FILLER_79_668
*26602 FILLER_79_673
*26603 FILLER_79_685
*26604 FILLER_79_69
*26605 FILLER_79_697
*26606 FILLER_79_7
*26607 FILLER_79_709
*26608 FILLER_79_721
*26609 FILLER_79_727
*26610 FILLER_79_729
*26611 FILLER_79_741
*26612 FILLER_79_753
*26613 FILLER_79_765
*26614 FILLER_79_777
*26615 FILLER_79_783
*26616 FILLER_79_785
*26617 FILLER_79_797
*26618 FILLER_79_809
*26619 FILLER_79_81
*26620 FILLER_79_821
*26621 FILLER_79_833
*26622 FILLER_79_839
*26623 FILLER_79_841
*26624 FILLER_79_853
*26625 FILLER_79_865
*26626 FILLER_79_877
*26627 FILLER_79_889
*26628 FILLER_79_895
*26629 FILLER_79_897
*26630 FILLER_79_909
*26631 FILLER_79_921
*26632 FILLER_79_93
*26633 FILLER_79_933
*26634 FILLER_79_945
*26635 FILLER_79_951
*26636 FILLER_79_953
*26637 FILLER_79_965
*26638 FILLER_79_977
*26639 FILLER_79_989
*26640 FILLER_7_1001
*26641 FILLER_7_1007
*26642 FILLER_7_1009
*26643 FILLER_7_1021
*26644 FILLER_7_1033
*26645 FILLER_7_1045
*26646 FILLER_7_105
*26647 FILLER_7_1057
*26648 FILLER_7_1063
*26649 FILLER_7_1065
*26650 FILLER_7_1077
*26651 FILLER_7_1089
*26652 FILLER_7_1101
*26653 FILLER_7_111
*26654 FILLER_7_1113
*26655 FILLER_7_1119
*26656 FILLER_7_1121
*26657 FILLER_7_113
*26658 FILLER_7_1133
*26659 FILLER_7_1145
*26660 FILLER_7_1157
*26661 FILLER_7_1169
*26662 FILLER_7_1175
*26663 FILLER_7_1177
*26664 FILLER_7_1189
*26665 FILLER_7_1201
*26666 FILLER_7_1213
*26667 FILLER_7_1225
*26668 FILLER_7_1231
*26669 FILLER_7_1233
*26670 FILLER_7_1245
*26671 FILLER_7_125
*26672 FILLER_7_1257
*26673 FILLER_7_1269
*26674 FILLER_7_137
*26675 FILLER_7_149
*26676 FILLER_7_15
*26677 FILLER_7_161
*26678 FILLER_7_167
*26679 FILLER_7_169
*26680 FILLER_7_181
*26681 FILLER_7_193
*26682 FILLER_7_205
*26683 FILLER_7_217
*26684 FILLER_7_223
*26685 FILLER_7_225
*26686 FILLER_7_237
*26687 FILLER_7_249
*26688 FILLER_7_261
*26689 FILLER_7_27
*26690 FILLER_7_273
*26691 FILLER_7_279
*26692 FILLER_7_281
*26693 FILLER_7_293
*26694 FILLER_7_3
*26695 FILLER_7_305
*26696 FILLER_7_317
*26697 FILLER_7_329
*26698 FILLER_7_335
*26699 FILLER_7_337
*26700 FILLER_7_349
*26701 FILLER_7_361
*26702 FILLER_7_373
*26703 FILLER_7_385
*26704 FILLER_7_39
*26705 FILLER_7_391
*26706 FILLER_7_393
*26707 FILLER_7_405
*26708 FILLER_7_417
*26709 FILLER_7_429
*26710 FILLER_7_441
*26711 FILLER_7_447
*26712 FILLER_7_449
*26713 FILLER_7_461
*26714 FILLER_7_473
*26715 FILLER_7_485
*26716 FILLER_7_497
*26717 FILLER_7_503
*26718 FILLER_7_505
*26719 FILLER_7_51
*26720 FILLER_7_517
*26721 FILLER_7_529
*26722 FILLER_7_541
*26723 FILLER_7_55
*26724 FILLER_7_553
*26725 FILLER_7_559
*26726 FILLER_7_561
*26727 FILLER_7_57
*26728 FILLER_7_573
*26729 FILLER_7_585
*26730 FILLER_7_597
*26731 FILLER_7_609
*26732 FILLER_7_615
*26733 FILLER_7_617
*26734 FILLER_7_629
*26735 FILLER_7_641
*26736 FILLER_7_653
*26737 FILLER_7_665
*26738 FILLER_7_671
*26739 FILLER_7_673
*26740 FILLER_7_685
*26741 FILLER_7_69
*26742 FILLER_7_697
*26743 FILLER_7_709
*26744 FILLER_7_721
*26745 FILLER_7_727
*26746 FILLER_7_729
*26747 FILLER_7_741
*26748 FILLER_7_753
*26749 FILLER_7_765
*26750 FILLER_7_777
*26751 FILLER_7_783
*26752 FILLER_7_785
*26753 FILLER_7_797
*26754 FILLER_7_809
*26755 FILLER_7_81
*26756 FILLER_7_821
*26757 FILLER_7_833
*26758 FILLER_7_839
*26759 FILLER_7_841
*26760 FILLER_7_853
*26761 FILLER_7_865
*26762 FILLER_7_877
*26763 FILLER_7_889
*26764 FILLER_7_895
*26765 FILLER_7_897
*26766 FILLER_7_909
*26767 FILLER_7_921
*26768 FILLER_7_93
*26769 FILLER_7_933
*26770 FILLER_7_945
*26771 FILLER_7_951
*26772 FILLER_7_953
*26773 FILLER_7_965
*26774 FILLER_7_977
*26775 FILLER_7_989
*26776 FILLER_80_1005
*26777 FILLER_80_1017
*26778 FILLER_80_1029
*26779 FILLER_80_1035
*26780 FILLER_80_1037
*26781 FILLER_80_1049
*26782 FILLER_80_1061
*26783 FILLER_80_1073
*26784 FILLER_80_1085
*26785 FILLER_80_109
*26786 FILLER_80_1091
*26787 FILLER_80_1093
*26788 FILLER_80_1105
*26789 FILLER_80_1117
*26790 FILLER_80_1129
*26791 FILLER_80_1141
*26792 FILLER_80_1147
*26793 FILLER_80_1149
*26794 FILLER_80_1161
*26795 FILLER_80_1173
*26796 FILLER_80_1185
*26797 FILLER_80_1197
*26798 FILLER_80_1203
*26799 FILLER_80_1205
*26800 FILLER_80_121
*26801 FILLER_80_1217
*26802 FILLER_80_1229
*26803 FILLER_80_1241
*26804 FILLER_80_1253
*26805 FILLER_80_1259
*26806 FILLER_80_1261
*26807 FILLER_80_1276
*26808 FILLER_80_133
*26809 FILLER_80_139
*26810 FILLER_80_141
*26811 FILLER_80_153
*26812 FILLER_80_165
*26813 FILLER_80_177
*26814 FILLER_80_189
*26815 FILLER_80_19
*26816 FILLER_80_195
*26817 FILLER_80_197
*26818 FILLER_80_209
*26819 FILLER_80_221
*26820 FILLER_80_233
*26821 FILLER_80_245
*26822 FILLER_80_251
*26823 FILLER_80_253
*26824 FILLER_80_265
*26825 FILLER_80_27
*26826 FILLER_80_277
*26827 FILLER_80_289
*26828 FILLER_80_29
*26829 FILLER_80_3
*26830 FILLER_80_301
*26831 FILLER_80_307
*26832 FILLER_80_309
*26833 FILLER_80_321
*26834 FILLER_80_333
*26835 FILLER_80_345
*26836 FILLER_80_357
*26837 FILLER_80_363
*26838 FILLER_80_365
*26839 FILLER_80_377
*26840 FILLER_80_389
*26841 FILLER_80_401
*26842 FILLER_80_41
*26843 FILLER_80_413
*26844 FILLER_80_419
*26845 FILLER_80_421
*26846 FILLER_80_433
*26847 FILLER_80_445
*26848 FILLER_80_457
*26849 FILLER_80_469
*26850 FILLER_80_475
*26851 FILLER_80_477
*26852 FILLER_80_489
*26853 FILLER_80_501
*26854 FILLER_80_513
*26855 FILLER_80_525
*26856 FILLER_80_53
*26857 FILLER_80_531
*26858 FILLER_80_533
*26859 FILLER_80_545
*26860 FILLER_80_557
*26861 FILLER_80_569
*26862 FILLER_80_581
*26863 FILLER_80_587
*26864 FILLER_80_589
*26865 FILLER_80_601
*26866 FILLER_80_613
*26867 FILLER_80_625
*26868 FILLER_80_637
*26869 FILLER_80_643
*26870 FILLER_80_645
*26871 FILLER_80_65
*26872 FILLER_80_657
*26873 FILLER_80_669
*26874 FILLER_80_681
*26875 FILLER_80_693
*26876 FILLER_80_699
*26877 FILLER_80_7
*26878 FILLER_80_701
*26879 FILLER_80_713
*26880 FILLER_80_725
*26881 FILLER_80_737
*26882 FILLER_80_749
*26883 FILLER_80_755
*26884 FILLER_80_757
*26885 FILLER_80_769
*26886 FILLER_80_77
*26887 FILLER_80_781
*26888 FILLER_80_793
*26889 FILLER_80_805
*26890 FILLER_80_811
*26891 FILLER_80_813
*26892 FILLER_80_825
*26893 FILLER_80_83
*26894 FILLER_80_837
*26895 FILLER_80_849
*26896 FILLER_80_85
*26897 FILLER_80_861
*26898 FILLER_80_867
*26899 FILLER_80_869
*26900 FILLER_80_881
*26901 FILLER_80_893
*26902 FILLER_80_905
*26903 FILLER_80_917
*26904 FILLER_80_923
*26905 FILLER_80_925
*26906 FILLER_80_937
*26907 FILLER_80_949
*26908 FILLER_80_961
*26909 FILLER_80_97
*26910 FILLER_80_973
*26911 FILLER_80_979
*26912 FILLER_80_981
*26913 FILLER_80_993
*26914 FILLER_81_1001
*26915 FILLER_81_1007
*26916 FILLER_81_1009
*26917 FILLER_81_1021
*26918 FILLER_81_1033
*26919 FILLER_81_1045
*26920 FILLER_81_105
*26921 FILLER_81_1057
*26922 FILLER_81_1063
*26923 FILLER_81_1065
*26924 FILLER_81_1077
*26925 FILLER_81_1089
*26926 FILLER_81_1101
*26927 FILLER_81_111
*26928 FILLER_81_1113
*26929 FILLER_81_1119
*26930 FILLER_81_1121
*26931 FILLER_81_113
*26932 FILLER_81_1133
*26933 FILLER_81_1145
*26934 FILLER_81_1157
*26935 FILLER_81_1169
*26936 FILLER_81_1175
*26937 FILLER_81_1177
*26938 FILLER_81_1189
*26939 FILLER_81_1201
*26940 FILLER_81_1213
*26941 FILLER_81_1225
*26942 FILLER_81_1231
*26943 FILLER_81_1233
*26944 FILLER_81_1245
*26945 FILLER_81_125
*26946 FILLER_81_1257
*26947 FILLER_81_1269
*26948 FILLER_81_1276
*26949 FILLER_81_137
*26950 FILLER_81_149
*26951 FILLER_81_161
*26952 FILLER_81_167
*26953 FILLER_81_169
*26954 FILLER_81_181
*26955 FILLER_81_19
*26956 FILLER_81_193
*26957 FILLER_81_205
*26958 FILLER_81_217
*26959 FILLER_81_223
*26960 FILLER_81_225
*26961 FILLER_81_237
*26962 FILLER_81_249
*26963 FILLER_81_261
*26964 FILLER_81_273
*26965 FILLER_81_279
*26966 FILLER_81_281
*26967 FILLER_81_293
*26968 FILLER_81_3
*26969 FILLER_81_305
*26970 FILLER_81_31
*26971 FILLER_81_317
*26972 FILLER_81_329
*26973 FILLER_81_335
*26974 FILLER_81_337
*26975 FILLER_81_349
*26976 FILLER_81_361
*26977 FILLER_81_373
*26978 FILLER_81_385
*26979 FILLER_81_391
*26980 FILLER_81_393
*26981 FILLER_81_405
*26982 FILLER_81_417
*26983 FILLER_81_429
*26984 FILLER_81_43
*26985 FILLER_81_441
*26986 FILLER_81_447
*26987 FILLER_81_449
*26988 FILLER_81_461
*26989 FILLER_81_473
*26990 FILLER_81_485
*26991 FILLER_81_497
*26992 FILLER_81_503
*26993 FILLER_81_505
*26994 FILLER_81_517
*26995 FILLER_81_529
*26996 FILLER_81_541
*26997 FILLER_81_55
*26998 FILLER_81_553
*26999 FILLER_81_559
*27000 FILLER_81_561
*27001 FILLER_81_57
*27002 FILLER_81_573
*27003 FILLER_81_585
*27004 FILLER_81_597
*27005 FILLER_81_609
*27006 FILLER_81_615
*27007 FILLER_81_617
*27008 FILLER_81_629
*27009 FILLER_81_641
*27010 FILLER_81_653
*27011 FILLER_81_665
*27012 FILLER_81_671
*27013 FILLER_81_673
*27014 FILLER_81_685
*27015 FILLER_81_69
*27016 FILLER_81_697
*27017 FILLER_81_7
*27018 FILLER_81_709
*27019 FILLER_81_721
*27020 FILLER_81_727
*27021 FILLER_81_729
*27022 FILLER_81_741
*27023 FILLER_81_753
*27024 FILLER_81_765
*27025 FILLER_81_777
*27026 FILLER_81_783
*27027 FILLER_81_785
*27028 FILLER_81_797
*27029 FILLER_81_809
*27030 FILLER_81_81
*27031 FILLER_81_821
*27032 FILLER_81_833
*27033 FILLER_81_839
*27034 FILLER_81_841
*27035 FILLER_81_853
*27036 FILLER_81_865
*27037 FILLER_81_877
*27038 FILLER_81_889
*27039 FILLER_81_895
*27040 FILLER_81_897
*27041 FILLER_81_909
*27042 FILLER_81_921
*27043 FILLER_81_93
*27044 FILLER_81_933
*27045 FILLER_81_945
*27046 FILLER_81_951
*27047 FILLER_81_953
*27048 FILLER_81_965
*27049 FILLER_81_977
*27050 FILLER_81_989
*27051 FILLER_82_1005
*27052 FILLER_82_1017
*27053 FILLER_82_1029
*27054 FILLER_82_1035
*27055 FILLER_82_1037
*27056 FILLER_82_1049
*27057 FILLER_82_1061
*27058 FILLER_82_1073
*27059 FILLER_82_1085
*27060 FILLER_82_109
*27061 FILLER_82_1091
*27062 FILLER_82_1093
*27063 FILLER_82_1105
*27064 FILLER_82_1117
*27065 FILLER_82_1129
*27066 FILLER_82_1141
*27067 FILLER_82_1147
*27068 FILLER_82_1149
*27069 FILLER_82_1161
*27070 FILLER_82_1173
*27071 FILLER_82_1185
*27072 FILLER_82_1197
*27073 FILLER_82_1203
*27074 FILLER_82_1205
*27075 FILLER_82_121
*27076 FILLER_82_1217
*27077 FILLER_82_1229
*27078 FILLER_82_1241
*27079 FILLER_82_1253
*27080 FILLER_82_1259
*27081 FILLER_82_1261
*27082 FILLER_82_1276
*27083 FILLER_82_133
*27084 FILLER_82_139
*27085 FILLER_82_141
*27086 FILLER_82_153
*27087 FILLER_82_165
*27088 FILLER_82_177
*27089 FILLER_82_189
*27090 FILLER_82_19
*27091 FILLER_82_195
*27092 FILLER_82_197
*27093 FILLER_82_209
*27094 FILLER_82_221
*27095 FILLER_82_233
*27096 FILLER_82_245
*27097 FILLER_82_251
*27098 FILLER_82_253
*27099 FILLER_82_265
*27100 FILLER_82_27
*27101 FILLER_82_277
*27102 FILLER_82_289
*27103 FILLER_82_29
*27104 FILLER_82_3
*27105 FILLER_82_301
*27106 FILLER_82_307
*27107 FILLER_82_309
*27108 FILLER_82_321
*27109 FILLER_82_333
*27110 FILLER_82_345
*27111 FILLER_82_357
*27112 FILLER_82_363
*27113 FILLER_82_365
*27114 FILLER_82_377
*27115 FILLER_82_389
*27116 FILLER_82_401
*27117 FILLER_82_41
*27118 FILLER_82_413
*27119 FILLER_82_419
*27120 FILLER_82_421
*27121 FILLER_82_433
*27122 FILLER_82_445
*27123 FILLER_82_457
*27124 FILLER_82_469
*27125 FILLER_82_475
*27126 FILLER_82_477
*27127 FILLER_82_489
*27128 FILLER_82_501
*27129 FILLER_82_513
*27130 FILLER_82_525
*27131 FILLER_82_53
*27132 FILLER_82_531
*27133 FILLER_82_533
*27134 FILLER_82_545
*27135 FILLER_82_557
*27136 FILLER_82_569
*27137 FILLER_82_581
*27138 FILLER_82_587
*27139 FILLER_82_589
*27140 FILLER_82_601
*27141 FILLER_82_613
*27142 FILLER_82_625
*27143 FILLER_82_637
*27144 FILLER_82_643
*27145 FILLER_82_645
*27146 FILLER_82_65
*27147 FILLER_82_657
*27148 FILLER_82_669
*27149 FILLER_82_681
*27150 FILLER_82_693
*27151 FILLER_82_699
*27152 FILLER_82_7
*27153 FILLER_82_701
*27154 FILLER_82_713
*27155 FILLER_82_725
*27156 FILLER_82_737
*27157 FILLER_82_749
*27158 FILLER_82_755
*27159 FILLER_82_757
*27160 FILLER_82_769
*27161 FILLER_82_77
*27162 FILLER_82_781
*27163 FILLER_82_793
*27164 FILLER_82_805
*27165 FILLER_82_811
*27166 FILLER_82_813
*27167 FILLER_82_825
*27168 FILLER_82_83
*27169 FILLER_82_837
*27170 FILLER_82_849
*27171 FILLER_82_85
*27172 FILLER_82_861
*27173 FILLER_82_867
*27174 FILLER_82_869
*27175 FILLER_82_881
*27176 FILLER_82_893
*27177 FILLER_82_905
*27178 FILLER_82_917
*27179 FILLER_82_923
*27180 FILLER_82_925
*27181 FILLER_82_937
*27182 FILLER_82_949
*27183 FILLER_82_961
*27184 FILLER_82_97
*27185 FILLER_82_973
*27186 FILLER_82_979
*27187 FILLER_82_981
*27188 FILLER_82_993
*27189 FILLER_83_1001
*27190 FILLER_83_1007
*27191 FILLER_83_1009
*27192 FILLER_83_1021
*27193 FILLER_83_1033
*27194 FILLER_83_1045
*27195 FILLER_83_105
*27196 FILLER_83_1057
*27197 FILLER_83_1063
*27198 FILLER_83_1065
*27199 FILLER_83_1077
*27200 FILLER_83_1089
*27201 FILLER_83_1101
*27202 FILLER_83_111
*27203 FILLER_83_1113
*27204 FILLER_83_1119
*27205 FILLER_83_1121
*27206 FILLER_83_113
*27207 FILLER_83_1133
*27208 FILLER_83_1145
*27209 FILLER_83_1157
*27210 FILLER_83_1169
*27211 FILLER_83_1175
*27212 FILLER_83_1177
*27213 FILLER_83_1189
*27214 FILLER_83_1201
*27215 FILLER_83_1213
*27216 FILLER_83_1225
*27217 FILLER_83_1231
*27218 FILLER_83_1233
*27219 FILLER_83_1245
*27220 FILLER_83_125
*27221 FILLER_83_1257
*27222 FILLER_83_1269
*27223 FILLER_83_137
*27224 FILLER_83_149
*27225 FILLER_83_15
*27226 FILLER_83_161
*27227 FILLER_83_167
*27228 FILLER_83_169
*27229 FILLER_83_181
*27230 FILLER_83_193
*27231 FILLER_83_205
*27232 FILLER_83_217
*27233 FILLER_83_223
*27234 FILLER_83_225
*27235 FILLER_83_237
*27236 FILLER_83_249
*27237 FILLER_83_261
*27238 FILLER_83_27
*27239 FILLER_83_273
*27240 FILLER_83_279
*27241 FILLER_83_281
*27242 FILLER_83_293
*27243 FILLER_83_3
*27244 FILLER_83_305
*27245 FILLER_83_317
*27246 FILLER_83_329
*27247 FILLER_83_335
*27248 FILLER_83_337
*27249 FILLER_83_349
*27250 FILLER_83_361
*27251 FILLER_83_373
*27252 FILLER_83_385
*27253 FILLER_83_39
*27254 FILLER_83_391
*27255 FILLER_83_393
*27256 FILLER_83_405
*27257 FILLER_83_417
*27258 FILLER_83_429
*27259 FILLER_83_441
*27260 FILLER_83_447
*27261 FILLER_83_449
*27262 FILLER_83_461
*27263 FILLER_83_473
*27264 FILLER_83_485
*27265 FILLER_83_497
*27266 FILLER_83_503
*27267 FILLER_83_505
*27268 FILLER_83_51
*27269 FILLER_83_517
*27270 FILLER_83_529
*27271 FILLER_83_541
*27272 FILLER_83_55
*27273 FILLER_83_553
*27274 FILLER_83_559
*27275 FILLER_83_561
*27276 FILLER_83_57
*27277 FILLER_83_573
*27278 FILLER_83_585
*27279 FILLER_83_597
*27280 FILLER_83_609
*27281 FILLER_83_615
*27282 FILLER_83_617
*27283 FILLER_83_629
*27284 FILLER_83_641
*27285 FILLER_83_653
*27286 FILLER_83_665
*27287 FILLER_83_671
*27288 FILLER_83_673
*27289 FILLER_83_685
*27290 FILLER_83_69
*27291 FILLER_83_697
*27292 FILLER_83_709
*27293 FILLER_83_721
*27294 FILLER_83_727
*27295 FILLER_83_729
*27296 FILLER_83_741
*27297 FILLER_83_753
*27298 FILLER_83_765
*27299 FILLER_83_777
*27300 FILLER_83_783
*27301 FILLER_83_785
*27302 FILLER_83_797
*27303 FILLER_83_809
*27304 FILLER_83_81
*27305 FILLER_83_821
*27306 FILLER_83_833
*27307 FILLER_83_839
*27308 FILLER_83_841
*27309 FILLER_83_853
*27310 FILLER_83_865
*27311 FILLER_83_877
*27312 FILLER_83_889
*27313 FILLER_83_895
*27314 FILLER_83_897
*27315 FILLER_83_909
*27316 FILLER_83_921
*27317 FILLER_83_93
*27318 FILLER_83_933
*27319 FILLER_83_945
*27320 FILLER_83_951
*27321 FILLER_83_953
*27322 FILLER_83_965
*27323 FILLER_83_977
*27324 FILLER_83_989
*27325 FILLER_84_1005
*27326 FILLER_84_1017
*27327 FILLER_84_1029
*27328 FILLER_84_1035
*27329 FILLER_84_1037
*27330 FILLER_84_1049
*27331 FILLER_84_1061
*27332 FILLER_84_1073
*27333 FILLER_84_1085
*27334 FILLER_84_109
*27335 FILLER_84_1091
*27336 FILLER_84_1093
*27337 FILLER_84_1105
*27338 FILLER_84_1117
*27339 FILLER_84_1129
*27340 FILLER_84_1141
*27341 FILLER_84_1147
*27342 FILLER_84_1149
*27343 FILLER_84_1161
*27344 FILLER_84_1173
*27345 FILLER_84_1185
*27346 FILLER_84_1197
*27347 FILLER_84_1203
*27348 FILLER_84_1205
*27349 FILLER_84_121
*27350 FILLER_84_1217
*27351 FILLER_84_1229
*27352 FILLER_84_1241
*27353 FILLER_84_1253
*27354 FILLER_84_1259
*27355 FILLER_84_1261
*27356 FILLER_84_1276
*27357 FILLER_84_133
*27358 FILLER_84_139
*27359 FILLER_84_141
*27360 FILLER_84_153
*27361 FILLER_84_165
*27362 FILLER_84_177
*27363 FILLER_84_189
*27364 FILLER_84_19
*27365 FILLER_84_195
*27366 FILLER_84_197
*27367 FILLER_84_209
*27368 FILLER_84_221
*27369 FILLER_84_233
*27370 FILLER_84_245
*27371 FILLER_84_251
*27372 FILLER_84_253
*27373 FILLER_84_265
*27374 FILLER_84_27
*27375 FILLER_84_277
*27376 FILLER_84_289
*27377 FILLER_84_29
*27378 FILLER_84_3
*27379 FILLER_84_301
*27380 FILLER_84_307
*27381 FILLER_84_309
*27382 FILLER_84_321
*27383 FILLER_84_333
*27384 FILLER_84_345
*27385 FILLER_84_357
*27386 FILLER_84_363
*27387 FILLER_84_365
*27388 FILLER_84_377
*27389 FILLER_84_389
*27390 FILLER_84_401
*27391 FILLER_84_41
*27392 FILLER_84_413
*27393 FILLER_84_419
*27394 FILLER_84_421
*27395 FILLER_84_433
*27396 FILLER_84_445
*27397 FILLER_84_457
*27398 FILLER_84_469
*27399 FILLER_84_475
*27400 FILLER_84_477
*27401 FILLER_84_489
*27402 FILLER_84_501
*27403 FILLER_84_513
*27404 FILLER_84_525
*27405 FILLER_84_53
*27406 FILLER_84_531
*27407 FILLER_84_533
*27408 FILLER_84_545
*27409 FILLER_84_557
*27410 FILLER_84_569
*27411 FILLER_84_581
*27412 FILLER_84_587
*27413 FILLER_84_589
*27414 FILLER_84_601
*27415 FILLER_84_613
*27416 FILLER_84_625
*27417 FILLER_84_637
*27418 FILLER_84_643
*27419 FILLER_84_645
*27420 FILLER_84_65
*27421 FILLER_84_657
*27422 FILLER_84_669
*27423 FILLER_84_681
*27424 FILLER_84_693
*27425 FILLER_84_699
*27426 FILLER_84_7
*27427 FILLER_84_701
*27428 FILLER_84_713
*27429 FILLER_84_725
*27430 FILLER_84_737
*27431 FILLER_84_749
*27432 FILLER_84_755
*27433 FILLER_84_757
*27434 FILLER_84_769
*27435 FILLER_84_77
*27436 FILLER_84_781
*27437 FILLER_84_793
*27438 FILLER_84_805
*27439 FILLER_84_811
*27440 FILLER_84_813
*27441 FILLER_84_825
*27442 FILLER_84_83
*27443 FILLER_84_837
*27444 FILLER_84_849
*27445 FILLER_84_85
*27446 FILLER_84_861
*27447 FILLER_84_867
*27448 FILLER_84_869
*27449 FILLER_84_881
*27450 FILLER_84_893
*27451 FILLER_84_905
*27452 FILLER_84_917
*27453 FILLER_84_923
*27454 FILLER_84_925
*27455 FILLER_84_937
*27456 FILLER_84_949
*27457 FILLER_84_961
*27458 FILLER_84_97
*27459 FILLER_84_973
*27460 FILLER_84_979
*27461 FILLER_84_981
*27462 FILLER_84_993
*27463 FILLER_85_1001
*27464 FILLER_85_1007
*27465 FILLER_85_1009
*27466 FILLER_85_1021
*27467 FILLER_85_1033
*27468 FILLER_85_1045
*27469 FILLER_85_105
*27470 FILLER_85_1057
*27471 FILLER_85_1063
*27472 FILLER_85_1065
*27473 FILLER_85_1077
*27474 FILLER_85_1089
*27475 FILLER_85_1101
*27476 FILLER_85_111
*27477 FILLER_85_1113
*27478 FILLER_85_1119
*27479 FILLER_85_1121
*27480 FILLER_85_113
*27481 FILLER_85_1133
*27482 FILLER_85_1145
*27483 FILLER_85_1157
*27484 FILLER_85_1169
*27485 FILLER_85_1175
*27486 FILLER_85_1177
*27487 FILLER_85_1189
*27488 FILLER_85_1201
*27489 FILLER_85_1213
*27490 FILLER_85_1225
*27491 FILLER_85_1231
*27492 FILLER_85_1233
*27493 FILLER_85_1245
*27494 FILLER_85_125
*27495 FILLER_85_1257
*27496 FILLER_85_1269
*27497 FILLER_85_1276
*27498 FILLER_85_137
*27499 FILLER_85_149
*27500 FILLER_85_15
*27501 FILLER_85_161
*27502 FILLER_85_167
*27503 FILLER_85_169
*27504 FILLER_85_181
*27505 FILLER_85_193
*27506 FILLER_85_205
*27507 FILLER_85_217
*27508 FILLER_85_223
*27509 FILLER_85_225
*27510 FILLER_85_237
*27511 FILLER_85_249
*27512 FILLER_85_261
*27513 FILLER_85_27
*27514 FILLER_85_273
*27515 FILLER_85_279
*27516 FILLER_85_281
*27517 FILLER_85_293
*27518 FILLER_85_3
*27519 FILLER_85_305
*27520 FILLER_85_317
*27521 FILLER_85_329
*27522 FILLER_85_335
*27523 FILLER_85_337
*27524 FILLER_85_349
*27525 FILLER_85_361
*27526 FILLER_85_373
*27527 FILLER_85_385
*27528 FILLER_85_39
*27529 FILLER_85_391
*27530 FILLER_85_393
*27531 FILLER_85_405
*27532 FILLER_85_417
*27533 FILLER_85_429
*27534 FILLER_85_441
*27535 FILLER_85_447
*27536 FILLER_85_449
*27537 FILLER_85_461
*27538 FILLER_85_473
*27539 FILLER_85_485
*27540 FILLER_85_497
*27541 FILLER_85_503
*27542 FILLER_85_505
*27543 FILLER_85_51
*27544 FILLER_85_517
*27545 FILLER_85_529
*27546 FILLER_85_541
*27547 FILLER_85_55
*27548 FILLER_85_553
*27549 FILLER_85_559
*27550 FILLER_85_561
*27551 FILLER_85_57
*27552 FILLER_85_573
*27553 FILLER_85_585
*27554 FILLER_85_597
*27555 FILLER_85_609
*27556 FILLER_85_615
*27557 FILLER_85_617
*27558 FILLER_85_629
*27559 FILLER_85_641
*27560 FILLER_85_653
*27561 FILLER_85_665
*27562 FILLER_85_671
*27563 FILLER_85_673
*27564 FILLER_85_685
*27565 FILLER_85_69
*27566 FILLER_85_697
*27567 FILLER_85_709
*27568 FILLER_85_721
*27569 FILLER_85_727
*27570 FILLER_85_729
*27571 FILLER_85_741
*27572 FILLER_85_753
*27573 FILLER_85_765
*27574 FILLER_85_777
*27575 FILLER_85_783
*27576 FILLER_85_785
*27577 FILLER_85_797
*27578 FILLER_85_809
*27579 FILLER_85_81
*27580 FILLER_85_821
*27581 FILLER_85_833
*27582 FILLER_85_839
*27583 FILLER_85_841
*27584 FILLER_85_853
*27585 FILLER_85_865
*27586 FILLER_85_877
*27587 FILLER_85_889
*27588 FILLER_85_895
*27589 FILLER_85_897
*27590 FILLER_85_909
*27591 FILLER_85_921
*27592 FILLER_85_93
*27593 FILLER_85_933
*27594 FILLER_85_945
*27595 FILLER_85_951
*27596 FILLER_85_953
*27597 FILLER_85_965
*27598 FILLER_85_977
*27599 FILLER_85_989
*27600 FILLER_86_1005
*27601 FILLER_86_1017
*27602 FILLER_86_1029
*27603 FILLER_86_1035
*27604 FILLER_86_1037
*27605 FILLER_86_1049
*27606 FILLER_86_1061
*27607 FILLER_86_1073
*27608 FILLER_86_1085
*27609 FILLER_86_109
*27610 FILLER_86_1091
*27611 FILLER_86_1093
*27612 FILLER_86_1105
*27613 FILLER_86_1117
*27614 FILLER_86_1129
*27615 FILLER_86_1141
*27616 FILLER_86_1147
*27617 FILLER_86_1149
*27618 FILLER_86_1161
*27619 FILLER_86_1173
*27620 FILLER_86_1185
*27621 FILLER_86_1197
*27622 FILLER_86_1203
*27623 FILLER_86_1205
*27624 FILLER_86_121
*27625 FILLER_86_1217
*27626 FILLER_86_1229
*27627 FILLER_86_1241
*27628 FILLER_86_1253
*27629 FILLER_86_1259
*27630 FILLER_86_1261
*27631 FILLER_86_1276
*27632 FILLER_86_133
*27633 FILLER_86_139
*27634 FILLER_86_141
*27635 FILLER_86_153
*27636 FILLER_86_165
*27637 FILLER_86_177
*27638 FILLER_86_189
*27639 FILLER_86_19
*27640 FILLER_86_195
*27641 FILLER_86_197
*27642 FILLER_86_209
*27643 FILLER_86_221
*27644 FILLER_86_233
*27645 FILLER_86_245
*27646 FILLER_86_251
*27647 FILLER_86_253
*27648 FILLER_86_265
*27649 FILLER_86_27
*27650 FILLER_86_277
*27651 FILLER_86_289
*27652 FILLER_86_29
*27653 FILLER_86_3
*27654 FILLER_86_301
*27655 FILLER_86_307
*27656 FILLER_86_309
*27657 FILLER_86_321
*27658 FILLER_86_333
*27659 FILLER_86_345
*27660 FILLER_86_357
*27661 FILLER_86_363
*27662 FILLER_86_365
*27663 FILLER_86_377
*27664 FILLER_86_389
*27665 FILLER_86_401
*27666 FILLER_86_41
*27667 FILLER_86_413
*27668 FILLER_86_419
*27669 FILLER_86_421
*27670 FILLER_86_433
*27671 FILLER_86_445
*27672 FILLER_86_457
*27673 FILLER_86_469
*27674 FILLER_86_475
*27675 FILLER_86_477
*27676 FILLER_86_489
*27677 FILLER_86_501
*27678 FILLER_86_513
*27679 FILLER_86_525
*27680 FILLER_86_53
*27681 FILLER_86_531
*27682 FILLER_86_533
*27683 FILLER_86_545
*27684 FILLER_86_557
*27685 FILLER_86_569
*27686 FILLER_86_581
*27687 FILLER_86_587
*27688 FILLER_86_589
*27689 FILLER_86_601
*27690 FILLER_86_613
*27691 FILLER_86_625
*27692 FILLER_86_637
*27693 FILLER_86_643
*27694 FILLER_86_645
*27695 FILLER_86_65
*27696 FILLER_86_657
*27697 FILLER_86_669
*27698 FILLER_86_681
*27699 FILLER_86_693
*27700 FILLER_86_699
*27701 FILLER_86_7
*27702 FILLER_86_701
*27703 FILLER_86_713
*27704 FILLER_86_725
*27705 FILLER_86_737
*27706 FILLER_86_749
*27707 FILLER_86_755
*27708 FILLER_86_757
*27709 FILLER_86_769
*27710 FILLER_86_77
*27711 FILLER_86_781
*27712 FILLER_86_793
*27713 FILLER_86_805
*27714 FILLER_86_811
*27715 FILLER_86_813
*27716 FILLER_86_825
*27717 FILLER_86_83
*27718 FILLER_86_837
*27719 FILLER_86_849
*27720 FILLER_86_85
*27721 FILLER_86_861
*27722 FILLER_86_867
*27723 FILLER_86_869
*27724 FILLER_86_881
*27725 FILLER_86_893
*27726 FILLER_86_905
*27727 FILLER_86_917
*27728 FILLER_86_923
*27729 FILLER_86_925
*27730 FILLER_86_937
*27731 FILLER_86_949
*27732 FILLER_86_961
*27733 FILLER_86_97
*27734 FILLER_86_973
*27735 FILLER_86_979
*27736 FILLER_86_981
*27737 FILLER_86_993
*27738 FILLER_87_1001
*27739 FILLER_87_1007
*27740 FILLER_87_1009
*27741 FILLER_87_1021
*27742 FILLER_87_1033
*27743 FILLER_87_1045
*27744 FILLER_87_105
*27745 FILLER_87_1057
*27746 FILLER_87_1063
*27747 FILLER_87_1065
*27748 FILLER_87_1077
*27749 FILLER_87_1089
*27750 FILLER_87_1101
*27751 FILLER_87_111
*27752 FILLER_87_1113
*27753 FILLER_87_1119
*27754 FILLER_87_1121
*27755 FILLER_87_113
*27756 FILLER_87_1133
*27757 FILLER_87_1145
*27758 FILLER_87_1157
*27759 FILLER_87_1169
*27760 FILLER_87_1175
*27761 FILLER_87_1177
*27762 FILLER_87_1189
*27763 FILLER_87_1201
*27764 FILLER_87_1213
*27765 FILLER_87_1225
*27766 FILLER_87_1231
*27767 FILLER_87_1233
*27768 FILLER_87_1245
*27769 FILLER_87_125
*27770 FILLER_87_1257
*27771 FILLER_87_1269
*27772 FILLER_87_1276
*27773 FILLER_87_137
*27774 FILLER_87_149
*27775 FILLER_87_161
*27776 FILLER_87_167
*27777 FILLER_87_169
*27778 FILLER_87_181
*27779 FILLER_87_19
*27780 FILLER_87_193
*27781 FILLER_87_205
*27782 FILLER_87_217
*27783 FILLER_87_223
*27784 FILLER_87_225
*27785 FILLER_87_237
*27786 FILLER_87_249
*27787 FILLER_87_261
*27788 FILLER_87_273
*27789 FILLER_87_279
*27790 FILLER_87_281
*27791 FILLER_87_293
*27792 FILLER_87_3
*27793 FILLER_87_305
*27794 FILLER_87_31
*27795 FILLER_87_317
*27796 FILLER_87_329
*27797 FILLER_87_335
*27798 FILLER_87_337
*27799 FILLER_87_349
*27800 FILLER_87_361
*27801 FILLER_87_373
*27802 FILLER_87_385
*27803 FILLER_87_391
*27804 FILLER_87_393
*27805 FILLER_87_405
*27806 FILLER_87_417
*27807 FILLER_87_429
*27808 FILLER_87_43
*27809 FILLER_87_441
*27810 FILLER_87_447
*27811 FILLER_87_449
*27812 FILLER_87_461
*27813 FILLER_87_473
*27814 FILLER_87_485
*27815 FILLER_87_497
*27816 FILLER_87_503
*27817 FILLER_87_505
*27818 FILLER_87_517
*27819 FILLER_87_529
*27820 FILLER_87_541
*27821 FILLER_87_55
*27822 FILLER_87_553
*27823 FILLER_87_559
*27824 FILLER_87_561
*27825 FILLER_87_57
*27826 FILLER_87_573
*27827 FILLER_87_585
*27828 FILLER_87_597
*27829 FILLER_87_609
*27830 FILLER_87_615
*27831 FILLER_87_617
*27832 FILLER_87_629
*27833 FILLER_87_641
*27834 FILLER_87_653
*27835 FILLER_87_665
*27836 FILLER_87_671
*27837 FILLER_87_673
*27838 FILLER_87_685
*27839 FILLER_87_69
*27840 FILLER_87_697
*27841 FILLER_87_7
*27842 FILLER_87_709
*27843 FILLER_87_721
*27844 FILLER_87_727
*27845 FILLER_87_729
*27846 FILLER_87_741
*27847 FILLER_87_753
*27848 FILLER_87_765
*27849 FILLER_87_777
*27850 FILLER_87_783
*27851 FILLER_87_785
*27852 FILLER_87_797
*27853 FILLER_87_809
*27854 FILLER_87_81
*27855 FILLER_87_821
*27856 FILLER_87_833
*27857 FILLER_87_839
*27858 FILLER_87_841
*27859 FILLER_87_853
*27860 FILLER_87_865
*27861 FILLER_87_877
*27862 FILLER_87_889
*27863 FILLER_87_895
*27864 FILLER_87_897
*27865 FILLER_87_909
*27866 FILLER_87_921
*27867 FILLER_87_93
*27868 FILLER_87_933
*27869 FILLER_87_945
*27870 FILLER_87_951
*27871 FILLER_87_953
*27872 FILLER_87_965
*27873 FILLER_87_977
*27874 FILLER_87_989
*27875 FILLER_88_1005
*27876 FILLER_88_1017
*27877 FILLER_88_1029
*27878 FILLER_88_1035
*27879 FILLER_88_1037
*27880 FILLER_88_1049
*27881 FILLER_88_1061
*27882 FILLER_88_1073
*27883 FILLER_88_1085
*27884 FILLER_88_109
*27885 FILLER_88_1091
*27886 FILLER_88_1093
*27887 FILLER_88_1105
*27888 FILLER_88_1117
*27889 FILLER_88_1129
*27890 FILLER_88_1141
*27891 FILLER_88_1147
*27892 FILLER_88_1149
*27893 FILLER_88_1161
*27894 FILLER_88_1173
*27895 FILLER_88_1185
*27896 FILLER_88_1197
*27897 FILLER_88_1203
*27898 FILLER_88_1205
*27899 FILLER_88_121
*27900 FILLER_88_1217
*27901 FILLER_88_1229
*27902 FILLER_88_1241
*27903 FILLER_88_1253
*27904 FILLER_88_1259
*27905 FILLER_88_1261
*27906 FILLER_88_1273
*27907 FILLER_88_133
*27908 FILLER_88_139
*27909 FILLER_88_141
*27910 FILLER_88_15
*27911 FILLER_88_153
*27912 FILLER_88_165
*27913 FILLER_88_177
*27914 FILLER_88_189
*27915 FILLER_88_195
*27916 FILLER_88_197
*27917 FILLER_88_209
*27918 FILLER_88_221
*27919 FILLER_88_233
*27920 FILLER_88_245
*27921 FILLER_88_251
*27922 FILLER_88_253
*27923 FILLER_88_265
*27924 FILLER_88_27
*27925 FILLER_88_277
*27926 FILLER_88_289
*27927 FILLER_88_29
*27928 FILLER_88_3
*27929 FILLER_88_301
*27930 FILLER_88_307
*27931 FILLER_88_309
*27932 FILLER_88_321
*27933 FILLER_88_333
*27934 FILLER_88_345
*27935 FILLER_88_357
*27936 FILLER_88_363
*27937 FILLER_88_365
*27938 FILLER_88_377
*27939 FILLER_88_389
*27940 FILLER_88_401
*27941 FILLER_88_41
*27942 FILLER_88_413
*27943 FILLER_88_419
*27944 FILLER_88_421
*27945 FILLER_88_433
*27946 FILLER_88_445
*27947 FILLER_88_457
*27948 FILLER_88_469
*27949 FILLER_88_475
*27950 FILLER_88_477
*27951 FILLER_88_489
*27952 FILLER_88_501
*27953 FILLER_88_513
*27954 FILLER_88_525
*27955 FILLER_88_53
*27956 FILLER_88_531
*27957 FILLER_88_533
*27958 FILLER_88_545
*27959 FILLER_88_557
*27960 FILLER_88_569
*27961 FILLER_88_581
*27962 FILLER_88_587
*27963 FILLER_88_589
*27964 FILLER_88_601
*27965 FILLER_88_613
*27966 FILLER_88_625
*27967 FILLER_88_637
*27968 FILLER_88_643
*27969 FILLER_88_645
*27970 FILLER_88_65
*27971 FILLER_88_657
*27972 FILLER_88_669
*27973 FILLER_88_681
*27974 FILLER_88_693
*27975 FILLER_88_699
*27976 FILLER_88_701
*27977 FILLER_88_713
*27978 FILLER_88_725
*27979 FILLER_88_737
*27980 FILLER_88_749
*27981 FILLER_88_755
*27982 FILLER_88_757
*27983 FILLER_88_769
*27984 FILLER_88_77
*27985 FILLER_88_781
*27986 FILLER_88_793
*27987 FILLER_88_805
*27988 FILLER_88_811
*27989 FILLER_88_813
*27990 FILLER_88_825
*27991 FILLER_88_83
*27992 FILLER_88_837
*27993 FILLER_88_849
*27994 FILLER_88_85
*27995 FILLER_88_861
*27996 FILLER_88_867
*27997 FILLER_88_869
*27998 FILLER_88_881
*27999 FILLER_88_893
*28000 FILLER_88_905
*28001 FILLER_88_917
*28002 FILLER_88_923
*28003 FILLER_88_925
*28004 FILLER_88_937
*28005 FILLER_88_949
*28006 FILLER_88_961
*28007 FILLER_88_97
*28008 FILLER_88_973
*28009 FILLER_88_979
*28010 FILLER_88_981
*28011 FILLER_88_993
*28012 FILLER_89_1001
*28013 FILLER_89_1007
*28014 FILLER_89_1009
*28015 FILLER_89_1021
*28016 FILLER_89_1033
*28017 FILLER_89_1045
*28018 FILLER_89_105
*28019 FILLER_89_1057
*28020 FILLER_89_1063
*28021 FILLER_89_1065
*28022 FILLER_89_1077
*28023 FILLER_89_1089
*28024 FILLER_89_1101
*28025 FILLER_89_111
*28026 FILLER_89_1113
*28027 FILLER_89_1119
*28028 FILLER_89_1121
*28029 FILLER_89_113
*28030 FILLER_89_1133
*28031 FILLER_89_1145
*28032 FILLER_89_1157
*28033 FILLER_89_1169
*28034 FILLER_89_1175
*28035 FILLER_89_1177
*28036 FILLER_89_1189
*28037 FILLER_89_1201
*28038 FILLER_89_1213
*28039 FILLER_89_1225
*28040 FILLER_89_1231
*28041 FILLER_89_1233
*28042 FILLER_89_1245
*28043 FILLER_89_125
*28044 FILLER_89_1257
*28045 FILLER_89_1269
*28046 FILLER_89_1276
*28047 FILLER_89_137
*28048 FILLER_89_149
*28049 FILLER_89_161
*28050 FILLER_89_167
*28051 FILLER_89_169
*28052 FILLER_89_181
*28053 FILLER_89_19
*28054 FILLER_89_193
*28055 FILLER_89_205
*28056 FILLER_89_217
*28057 FILLER_89_223
*28058 FILLER_89_225
*28059 FILLER_89_237
*28060 FILLER_89_249
*28061 FILLER_89_261
*28062 FILLER_89_273
*28063 FILLER_89_279
*28064 FILLER_89_281
*28065 FILLER_89_293
*28066 FILLER_89_3
*28067 FILLER_89_305
*28068 FILLER_89_31
*28069 FILLER_89_317
*28070 FILLER_89_329
*28071 FILLER_89_335
*28072 FILLER_89_337
*28073 FILLER_89_349
*28074 FILLER_89_361
*28075 FILLER_89_373
*28076 FILLER_89_385
*28077 FILLER_89_391
*28078 FILLER_89_393
*28079 FILLER_89_405
*28080 FILLER_89_417
*28081 FILLER_89_429
*28082 FILLER_89_43
*28083 FILLER_89_441
*28084 FILLER_89_447
*28085 FILLER_89_449
*28086 FILLER_89_461
*28087 FILLER_89_473
*28088 FILLER_89_485
*28089 FILLER_89_497
*28090 FILLER_89_503
*28091 FILLER_89_505
*28092 FILLER_89_517
*28093 FILLER_89_529
*28094 FILLER_89_541
*28095 FILLER_89_55
*28096 FILLER_89_553
*28097 FILLER_89_559
*28098 FILLER_89_561
*28099 FILLER_89_57
*28100 FILLER_89_573
*28101 FILLER_89_585
*28102 FILLER_89_597
*28103 FILLER_89_609
*28104 FILLER_89_615
*28105 FILLER_89_617
*28106 FILLER_89_629
*28107 FILLER_89_641
*28108 FILLER_89_653
*28109 FILLER_89_665
*28110 FILLER_89_671
*28111 FILLER_89_673
*28112 FILLER_89_685
*28113 FILLER_89_69
*28114 FILLER_89_697
*28115 FILLER_89_7
*28116 FILLER_89_709
*28117 FILLER_89_721
*28118 FILLER_89_727
*28119 FILLER_89_729
*28120 FILLER_89_741
*28121 FILLER_89_753
*28122 FILLER_89_765
*28123 FILLER_89_777
*28124 FILLER_89_783
*28125 FILLER_89_785
*28126 FILLER_89_797
*28127 FILLER_89_809
*28128 FILLER_89_81
*28129 FILLER_89_821
*28130 FILLER_89_833
*28131 FILLER_89_839
*28132 FILLER_89_841
*28133 FILLER_89_853
*28134 FILLER_89_865
*28135 FILLER_89_877
*28136 FILLER_89_889
*28137 FILLER_89_895
*28138 FILLER_89_897
*28139 FILLER_89_909
*28140 FILLER_89_921
*28141 FILLER_89_93
*28142 FILLER_89_933
*28143 FILLER_89_945
*28144 FILLER_89_951
*28145 FILLER_89_953
*28146 FILLER_89_965
*28147 FILLER_89_977
*28148 FILLER_89_989
*28149 FILLER_8_1005
*28150 FILLER_8_1017
*28151 FILLER_8_1029
*28152 FILLER_8_1035
*28153 FILLER_8_1037
*28154 FILLER_8_1049
*28155 FILLER_8_1061
*28156 FILLER_8_1073
*28157 FILLER_8_1085
*28158 FILLER_8_109
*28159 FILLER_8_1091
*28160 FILLER_8_1093
*28161 FILLER_8_1105
*28162 FILLER_8_1117
*28163 FILLER_8_1129
*28164 FILLER_8_1141
*28165 FILLER_8_1147
*28166 FILLER_8_1149
*28167 FILLER_8_1161
*28168 FILLER_8_1173
*28169 FILLER_8_1185
*28170 FILLER_8_1197
*28171 FILLER_8_1203
*28172 FILLER_8_1205
*28173 FILLER_8_121
*28174 FILLER_8_1217
*28175 FILLER_8_1229
*28176 FILLER_8_1241
*28177 FILLER_8_1253
*28178 FILLER_8_1259
*28179 FILLER_8_1261
*28180 FILLER_8_1273
*28181 FILLER_8_133
*28182 FILLER_8_139
*28183 FILLER_8_141
*28184 FILLER_8_15
*28185 FILLER_8_153
*28186 FILLER_8_165
*28187 FILLER_8_177
*28188 FILLER_8_189
*28189 FILLER_8_195
*28190 FILLER_8_197
*28191 FILLER_8_209
*28192 FILLER_8_221
*28193 FILLER_8_233
*28194 FILLER_8_245
*28195 FILLER_8_251
*28196 FILLER_8_253
*28197 FILLER_8_265
*28198 FILLER_8_27
*28199 FILLER_8_277
*28200 FILLER_8_289
*28201 FILLER_8_29
*28202 FILLER_8_3
*28203 FILLER_8_301
*28204 FILLER_8_307
*28205 FILLER_8_309
*28206 FILLER_8_321
*28207 FILLER_8_333
*28208 FILLER_8_345
*28209 FILLER_8_357
*28210 FILLER_8_363
*28211 FILLER_8_365
*28212 FILLER_8_377
*28213 FILLER_8_389
*28214 FILLER_8_401
*28215 FILLER_8_41
*28216 FILLER_8_413
*28217 FILLER_8_419
*28218 FILLER_8_421
*28219 FILLER_8_433
*28220 FILLER_8_445
*28221 FILLER_8_457
*28222 FILLER_8_469
*28223 FILLER_8_475
*28224 FILLER_8_477
*28225 FILLER_8_489
*28226 FILLER_8_501
*28227 FILLER_8_513
*28228 FILLER_8_525
*28229 FILLER_8_53
*28230 FILLER_8_531
*28231 FILLER_8_533
*28232 FILLER_8_545
*28233 FILLER_8_557
*28234 FILLER_8_569
*28235 FILLER_8_581
*28236 FILLER_8_587
*28237 FILLER_8_589
*28238 FILLER_8_601
*28239 FILLER_8_613
*28240 FILLER_8_625
*28241 FILLER_8_637
*28242 FILLER_8_643
*28243 FILLER_8_645
*28244 FILLER_8_65
*28245 FILLER_8_657
*28246 FILLER_8_669
*28247 FILLER_8_681
*28248 FILLER_8_693
*28249 FILLER_8_699
*28250 FILLER_8_701
*28251 FILLER_8_713
*28252 FILLER_8_725
*28253 FILLER_8_737
*28254 FILLER_8_749
*28255 FILLER_8_755
*28256 FILLER_8_757
*28257 FILLER_8_769
*28258 FILLER_8_77
*28259 FILLER_8_781
*28260 FILLER_8_793
*28261 FILLER_8_805
*28262 FILLER_8_811
*28263 FILLER_8_813
*28264 FILLER_8_825
*28265 FILLER_8_83
*28266 FILLER_8_837
*28267 FILLER_8_849
*28268 FILLER_8_85
*28269 FILLER_8_861
*28270 FILLER_8_867
*28271 FILLER_8_869
*28272 FILLER_8_881
*28273 FILLER_8_893
*28274 FILLER_8_905
*28275 FILLER_8_917
*28276 FILLER_8_923
*28277 FILLER_8_925
*28278 FILLER_8_937
*28279 FILLER_8_949
*28280 FILLER_8_961
*28281 FILLER_8_97
*28282 FILLER_8_973
*28283 FILLER_8_979
*28284 FILLER_8_981
*28285 FILLER_8_993
*28286 FILLER_90_1005
*28287 FILLER_90_1017
*28288 FILLER_90_1029
*28289 FILLER_90_1035
*28290 FILLER_90_1037
*28291 FILLER_90_1049
*28292 FILLER_90_1061
*28293 FILLER_90_1073
*28294 FILLER_90_1085
*28295 FILLER_90_109
*28296 FILLER_90_1091
*28297 FILLER_90_1093
*28298 FILLER_90_11
*28299 FILLER_90_1105
*28300 FILLER_90_1117
*28301 FILLER_90_1129
*28302 FILLER_90_1141
*28303 FILLER_90_1147
*28304 FILLER_90_1149
*28305 FILLER_90_1161
*28306 FILLER_90_1173
*28307 FILLER_90_1185
*28308 FILLER_90_1197
*28309 FILLER_90_1203
*28310 FILLER_90_1205
*28311 FILLER_90_121
*28312 FILLER_90_1217
*28313 FILLER_90_1229
*28314 FILLER_90_1241
*28315 FILLER_90_1253
*28316 FILLER_90_1259
*28317 FILLER_90_1261
*28318 FILLER_90_1276
*28319 FILLER_90_133
*28320 FILLER_90_139
*28321 FILLER_90_141
*28322 FILLER_90_153
*28323 FILLER_90_16
*28324 FILLER_90_165
*28325 FILLER_90_177
*28326 FILLER_90_189
*28327 FILLER_90_195
*28328 FILLER_90_197
*28329 FILLER_90_209
*28330 FILLER_90_221
*28331 FILLER_90_233
*28332 FILLER_90_245
*28333 FILLER_90_251
*28334 FILLER_90_253
*28335 FILLER_90_265
*28336 FILLER_90_277
*28337 FILLER_90_289
*28338 FILLER_90_29
*28339 FILLER_90_3
*28340 FILLER_90_301
*28341 FILLER_90_307
*28342 FILLER_90_309
*28343 FILLER_90_321
*28344 FILLER_90_333
*28345 FILLER_90_345
*28346 FILLER_90_357
*28347 FILLER_90_363
*28348 FILLER_90_365
*28349 FILLER_90_377
*28350 FILLER_90_389
*28351 FILLER_90_401
*28352 FILLER_90_41
*28353 FILLER_90_413
*28354 FILLER_90_419
*28355 FILLER_90_421
*28356 FILLER_90_433
*28357 FILLER_90_445
*28358 FILLER_90_457
*28359 FILLER_90_469
*28360 FILLER_90_475
*28361 FILLER_90_477
*28362 FILLER_90_489
*28363 FILLER_90_501
*28364 FILLER_90_513
*28365 FILLER_90_525
*28366 FILLER_90_53
*28367 FILLER_90_531
*28368 FILLER_90_533
*28369 FILLER_90_545
*28370 FILLER_90_557
*28371 FILLER_90_569
*28372 FILLER_90_581
*28373 FILLER_90_587
*28374 FILLER_90_589
*28375 FILLER_90_601
*28376 FILLER_90_613
*28377 FILLER_90_625
*28378 FILLER_90_637
*28379 FILLER_90_643
*28380 FILLER_90_645
*28381 FILLER_90_65
*28382 FILLER_90_657
*28383 FILLER_90_669
*28384 FILLER_90_681
*28385 FILLER_90_693
*28386 FILLER_90_699
*28387 FILLER_90_7
*28388 FILLER_90_701
*28389 FILLER_90_713
*28390 FILLER_90_725
*28391 FILLER_90_737
*28392 FILLER_90_749
*28393 FILLER_90_755
*28394 FILLER_90_757
*28395 FILLER_90_769
*28396 FILLER_90_77
*28397 FILLER_90_781
*28398 FILLER_90_793
*28399 FILLER_90_805
*28400 FILLER_90_811
*28401 FILLER_90_813
*28402 FILLER_90_825
*28403 FILLER_90_83
*28404 FILLER_90_837
*28405 FILLER_90_849
*28406 FILLER_90_85
*28407 FILLER_90_861
*28408 FILLER_90_867
*28409 FILLER_90_869
*28410 FILLER_90_881
*28411 FILLER_90_893
*28412 FILLER_90_905
*28413 FILLER_90_917
*28414 FILLER_90_923
*28415 FILLER_90_925
*28416 FILLER_90_937
*28417 FILLER_90_949
*28418 FILLER_90_961
*28419 FILLER_90_97
*28420 FILLER_90_973
*28421 FILLER_90_979
*28422 FILLER_90_981
*28423 FILLER_90_993
*28424 FILLER_91_1001
*28425 FILLER_91_1007
*28426 FILLER_91_1009
*28427 FILLER_91_1021
*28428 FILLER_91_1033
*28429 FILLER_91_1045
*28430 FILLER_91_105
*28431 FILLER_91_1057
*28432 FILLER_91_1063
*28433 FILLER_91_1065
*28434 FILLER_91_1077
*28435 FILLER_91_1089
*28436 FILLER_91_1101
*28437 FILLER_91_111
*28438 FILLER_91_1113
*28439 FILLER_91_1119
*28440 FILLER_91_1121
*28441 FILLER_91_113
*28442 FILLER_91_1133
*28443 FILLER_91_1145
*28444 FILLER_91_1157
*28445 FILLER_91_1169
*28446 FILLER_91_1175
*28447 FILLER_91_1177
*28448 FILLER_91_1189
*28449 FILLER_91_1201
*28450 FILLER_91_1213
*28451 FILLER_91_1225
*28452 FILLER_91_1231
*28453 FILLER_91_1233
*28454 FILLER_91_1245
*28455 FILLER_91_125
*28456 FILLER_91_1257
*28457 FILLER_91_1263
*28458 FILLER_91_1266
*28459 FILLER_91_1272
*28460 FILLER_91_1276
*28461 FILLER_91_137
*28462 FILLER_91_149
*28463 FILLER_91_15
*28464 FILLER_91_161
*28465 FILLER_91_167
*28466 FILLER_91_169
*28467 FILLER_91_181
*28468 FILLER_91_193
*28469 FILLER_91_205
*28470 FILLER_91_217
*28471 FILLER_91_223
*28472 FILLER_91_225
*28473 FILLER_91_237
*28474 FILLER_91_249
*28475 FILLER_91_261
*28476 FILLER_91_27
*28477 FILLER_91_273
*28478 FILLER_91_279
*28479 FILLER_91_281
*28480 FILLER_91_293
*28481 FILLER_91_3
*28482 FILLER_91_305
*28483 FILLER_91_317
*28484 FILLER_91_329
*28485 FILLER_91_335
*28486 FILLER_91_337
*28487 FILLER_91_349
*28488 FILLER_91_361
*28489 FILLER_91_373
*28490 FILLER_91_385
*28491 FILLER_91_39
*28492 FILLER_91_391
*28493 FILLER_91_393
*28494 FILLER_91_405
*28495 FILLER_91_417
*28496 FILLER_91_429
*28497 FILLER_91_441
*28498 FILLER_91_447
*28499 FILLER_91_449
*28500 FILLER_91_461
*28501 FILLER_91_473
*28502 FILLER_91_485
*28503 FILLER_91_497
*28504 FILLER_91_503
*28505 FILLER_91_505
*28506 FILLER_91_51
*28507 FILLER_91_517
*28508 FILLER_91_529
*28509 FILLER_91_541
*28510 FILLER_91_55
*28511 FILLER_91_553
*28512 FILLER_91_559
*28513 FILLER_91_561
*28514 FILLER_91_57
*28515 FILLER_91_573
*28516 FILLER_91_585
*28517 FILLER_91_597
*28518 FILLER_91_609
*28519 FILLER_91_615
*28520 FILLER_91_617
*28521 FILLER_91_629
*28522 FILLER_91_641
*28523 FILLER_91_653
*28524 FILLER_91_665
*28525 FILLER_91_671
*28526 FILLER_91_673
*28527 FILLER_91_685
*28528 FILLER_91_69
*28529 FILLER_91_697
*28530 FILLER_91_709
*28531 FILLER_91_721
*28532 FILLER_91_727
*28533 FILLER_91_729
*28534 FILLER_91_741
*28535 FILLER_91_753
*28536 FILLER_91_765
*28537 FILLER_91_777
*28538 FILLER_91_783
*28539 FILLER_91_785
*28540 FILLER_91_797
*28541 FILLER_91_809
*28542 FILLER_91_81
*28543 FILLER_91_821
*28544 FILLER_91_833
*28545 FILLER_91_839
*28546 FILLER_91_841
*28547 FILLER_91_853
*28548 FILLER_91_865
*28549 FILLER_91_877
*28550 FILLER_91_889
*28551 FILLER_91_895
*28552 FILLER_91_897
*28553 FILLER_91_909
*28554 FILLER_91_921
*28555 FILLER_91_93
*28556 FILLER_91_933
*28557 FILLER_91_945
*28558 FILLER_91_951
*28559 FILLER_91_953
*28560 FILLER_91_965
*28561 FILLER_91_977
*28562 FILLER_91_989
*28563 FILLER_92_1005
*28564 FILLER_92_1017
*28565 FILLER_92_1029
*28566 FILLER_92_1035
*28567 FILLER_92_1037
*28568 FILLER_92_1049
*28569 FILLER_92_1061
*28570 FILLER_92_1073
*28571 FILLER_92_1085
*28572 FILLER_92_109
*28573 FILLER_92_1091
*28574 FILLER_92_1093
*28575 FILLER_92_1105
*28576 FILLER_92_1117
*28577 FILLER_92_1129
*28578 FILLER_92_1141
*28579 FILLER_92_1147
*28580 FILLER_92_1149
*28581 FILLER_92_1161
*28582 FILLER_92_1173
*28583 FILLER_92_1185
*28584 FILLER_92_1197
*28585 FILLER_92_1203
*28586 FILLER_92_1205
*28587 FILLER_92_121
*28588 FILLER_92_1217
*28589 FILLER_92_1229
*28590 FILLER_92_1241
*28591 FILLER_92_1253
*28592 FILLER_92_1259
*28593 FILLER_92_1261
*28594 FILLER_92_1267
*28595 FILLER_92_1276
*28596 FILLER_92_133
*28597 FILLER_92_139
*28598 FILLER_92_141
*28599 FILLER_92_153
*28600 FILLER_92_165
*28601 FILLER_92_177
*28602 FILLER_92_189
*28603 FILLER_92_19
*28604 FILLER_92_195
*28605 FILLER_92_197
*28606 FILLER_92_209
*28607 FILLER_92_221
*28608 FILLER_92_233
*28609 FILLER_92_245
*28610 FILLER_92_251
*28611 FILLER_92_253
*28612 FILLER_92_265
*28613 FILLER_92_27
*28614 FILLER_92_277
*28615 FILLER_92_289
*28616 FILLER_92_29
*28617 FILLER_92_3
*28618 FILLER_92_301
*28619 FILLER_92_307
*28620 FILLER_92_309
*28621 FILLER_92_321
*28622 FILLER_92_333
*28623 FILLER_92_345
*28624 FILLER_92_357
*28625 FILLER_92_363
*28626 FILLER_92_365
*28627 FILLER_92_377
*28628 FILLER_92_389
*28629 FILLER_92_401
*28630 FILLER_92_41
*28631 FILLER_92_413
*28632 FILLER_92_419
*28633 FILLER_92_421
*28634 FILLER_92_433
*28635 FILLER_92_445
*28636 FILLER_92_457
*28637 FILLER_92_469
*28638 FILLER_92_475
*28639 FILLER_92_477
*28640 FILLER_92_489
*28641 FILLER_92_501
*28642 FILLER_92_513
*28643 FILLER_92_525
*28644 FILLER_92_53
*28645 FILLER_92_531
*28646 FILLER_92_533
*28647 FILLER_92_545
*28648 FILLER_92_557
*28649 FILLER_92_569
*28650 FILLER_92_581
*28651 FILLER_92_587
*28652 FILLER_92_589
*28653 FILLER_92_601
*28654 FILLER_92_613
*28655 FILLER_92_625
*28656 FILLER_92_637
*28657 FILLER_92_643
*28658 FILLER_92_645
*28659 FILLER_92_65
*28660 FILLER_92_657
*28661 FILLER_92_669
*28662 FILLER_92_681
*28663 FILLER_92_693
*28664 FILLER_92_699
*28665 FILLER_92_7
*28666 FILLER_92_701
*28667 FILLER_92_713
*28668 FILLER_92_725
*28669 FILLER_92_737
*28670 FILLER_92_749
*28671 FILLER_92_755
*28672 FILLER_92_757
*28673 FILLER_92_769
*28674 FILLER_92_77
*28675 FILLER_92_781
*28676 FILLER_92_793
*28677 FILLER_92_805
*28678 FILLER_92_811
*28679 FILLER_92_813
*28680 FILLER_92_825
*28681 FILLER_92_83
*28682 FILLER_92_837
*28683 FILLER_92_849
*28684 FILLER_92_85
*28685 FILLER_92_861
*28686 FILLER_92_867
*28687 FILLER_92_869
*28688 FILLER_92_881
*28689 FILLER_92_893
*28690 FILLER_92_905
*28691 FILLER_92_917
*28692 FILLER_92_923
*28693 FILLER_92_925
*28694 FILLER_92_937
*28695 FILLER_92_949
*28696 FILLER_92_961
*28697 FILLER_92_97
*28698 FILLER_92_973
*28699 FILLER_92_979
*28700 FILLER_92_981
*28701 FILLER_92_993
*28702 FILLER_93_1001
*28703 FILLER_93_1007
*28704 FILLER_93_1009
*28705 FILLER_93_1021
*28706 FILLER_93_1033
*28707 FILLER_93_1045
*28708 FILLER_93_105
*28709 FILLER_93_1057
*28710 FILLER_93_1063
*28711 FILLER_93_1065
*28712 FILLER_93_1077
*28713 FILLER_93_1089
*28714 FILLER_93_1101
*28715 FILLER_93_111
*28716 FILLER_93_1113
*28717 FILLER_93_1119
*28718 FILLER_93_1121
*28719 FILLER_93_113
*28720 FILLER_93_1133
*28721 FILLER_93_1145
*28722 FILLER_93_1157
*28723 FILLER_93_1169
*28724 FILLER_93_1175
*28725 FILLER_93_1177
*28726 FILLER_93_1189
*28727 FILLER_93_1201
*28728 FILLER_93_1213
*28729 FILLER_93_1225
*28730 FILLER_93_1231
*28731 FILLER_93_1233
*28732 FILLER_93_1245
*28733 FILLER_93_125
*28734 FILLER_93_1257
*28735 FILLER_93_1269
*28736 FILLER_93_137
*28737 FILLER_93_149
*28738 FILLER_93_15
*28739 FILLER_93_161
*28740 FILLER_93_167
*28741 FILLER_93_169
*28742 FILLER_93_181
*28743 FILLER_93_193
*28744 FILLER_93_205
*28745 FILLER_93_217
*28746 FILLER_93_223
*28747 FILLER_93_225
*28748 FILLER_93_237
*28749 FILLER_93_249
*28750 FILLER_93_261
*28751 FILLER_93_27
*28752 FILLER_93_273
*28753 FILLER_93_279
*28754 FILLER_93_281
*28755 FILLER_93_293
*28756 FILLER_93_3
*28757 FILLER_93_305
*28758 FILLER_93_317
*28759 FILLER_93_329
*28760 FILLER_93_335
*28761 FILLER_93_337
*28762 FILLER_93_349
*28763 FILLER_93_361
*28764 FILLER_93_373
*28765 FILLER_93_385
*28766 FILLER_93_39
*28767 FILLER_93_391
*28768 FILLER_93_393
*28769 FILLER_93_405
*28770 FILLER_93_417
*28771 FILLER_93_429
*28772 FILLER_93_441
*28773 FILLER_93_447
*28774 FILLER_93_449
*28775 FILLER_93_461
*28776 FILLER_93_473
*28777 FILLER_93_485
*28778 FILLER_93_497
*28779 FILLER_93_503
*28780 FILLER_93_505
*28781 FILLER_93_51
*28782 FILLER_93_517
*28783 FILLER_93_529
*28784 FILLER_93_541
*28785 FILLER_93_55
*28786 FILLER_93_553
*28787 FILLER_93_559
*28788 FILLER_93_561
*28789 FILLER_93_57
*28790 FILLER_93_573
*28791 FILLER_93_585
*28792 FILLER_93_597
*28793 FILLER_93_609
*28794 FILLER_93_615
*28795 FILLER_93_617
*28796 FILLER_93_629
*28797 FILLER_93_641
*28798 FILLER_93_653
*28799 FILLER_93_665
*28800 FILLER_93_671
*28801 FILLER_93_673
*28802 FILLER_93_685
*28803 FILLER_93_69
*28804 FILLER_93_697
*28805 FILLER_93_709
*28806 FILLER_93_721
*28807 FILLER_93_727
*28808 FILLER_93_729
*28809 FILLER_93_741
*28810 FILLER_93_753
*28811 FILLER_93_765
*28812 FILLER_93_777
*28813 FILLER_93_783
*28814 FILLER_93_785
*28815 FILLER_93_797
*28816 FILLER_93_809
*28817 FILLER_93_81
*28818 FILLER_93_821
*28819 FILLER_93_833
*28820 FILLER_93_839
*28821 FILLER_93_841
*28822 FILLER_93_853
*28823 FILLER_93_865
*28824 FILLER_93_877
*28825 FILLER_93_889
*28826 FILLER_93_895
*28827 FILLER_93_897
*28828 FILLER_93_909
*28829 FILLER_93_921
*28830 FILLER_93_93
*28831 FILLER_93_933
*28832 FILLER_93_945
*28833 FILLER_93_951
*28834 FILLER_93_953
*28835 FILLER_93_965
*28836 FILLER_93_977
*28837 FILLER_93_989
*28838 FILLER_94_1005
*28839 FILLER_94_1017
*28840 FILLER_94_1029
*28841 FILLER_94_1035
*28842 FILLER_94_1037
*28843 FILLER_94_1049
*28844 FILLER_94_1061
*28845 FILLER_94_1073
*28846 FILLER_94_1085
*28847 FILLER_94_109
*28848 FILLER_94_1091
*28849 FILLER_94_1093
*28850 FILLER_94_1105
*28851 FILLER_94_1117
*28852 FILLER_94_1129
*28853 FILLER_94_1141
*28854 FILLER_94_1147
*28855 FILLER_94_1149
*28856 FILLER_94_1161
*28857 FILLER_94_1173
*28858 FILLER_94_1185
*28859 FILLER_94_1197
*28860 FILLER_94_1203
*28861 FILLER_94_1205
*28862 FILLER_94_121
*28863 FILLER_94_1217
*28864 FILLER_94_1229
*28865 FILLER_94_1241
*28866 FILLER_94_1253
*28867 FILLER_94_1259
*28868 FILLER_94_1261
*28869 FILLER_94_1276
*28870 FILLER_94_133
*28871 FILLER_94_139
*28872 FILLER_94_141
*28873 FILLER_94_153
*28874 FILLER_94_165
*28875 FILLER_94_177
*28876 FILLER_94_189
*28877 FILLER_94_19
*28878 FILLER_94_195
*28879 FILLER_94_197
*28880 FILLER_94_209
*28881 FILLER_94_221
*28882 FILLER_94_233
*28883 FILLER_94_245
*28884 FILLER_94_251
*28885 FILLER_94_253
*28886 FILLER_94_265
*28887 FILLER_94_27
*28888 FILLER_94_277
*28889 FILLER_94_289
*28890 FILLER_94_29
*28891 FILLER_94_3
*28892 FILLER_94_301
*28893 FILLER_94_307
*28894 FILLER_94_309
*28895 FILLER_94_321
*28896 FILLER_94_333
*28897 FILLER_94_345
*28898 FILLER_94_357
*28899 FILLER_94_363
*28900 FILLER_94_365
*28901 FILLER_94_377
*28902 FILLER_94_389
*28903 FILLER_94_401
*28904 FILLER_94_41
*28905 FILLER_94_413
*28906 FILLER_94_419
*28907 FILLER_94_421
*28908 FILLER_94_433
*28909 FILLER_94_445
*28910 FILLER_94_457
*28911 FILLER_94_469
*28912 FILLER_94_475
*28913 FILLER_94_477
*28914 FILLER_94_489
*28915 FILLER_94_501
*28916 FILLER_94_513
*28917 FILLER_94_525
*28918 FILLER_94_53
*28919 FILLER_94_531
*28920 FILLER_94_533
*28921 FILLER_94_545
*28922 FILLER_94_557
*28923 FILLER_94_569
*28924 FILLER_94_581
*28925 FILLER_94_587
*28926 FILLER_94_589
*28927 FILLER_94_601
*28928 FILLER_94_613
*28929 FILLER_94_625
*28930 FILLER_94_637
*28931 FILLER_94_643
*28932 FILLER_94_645
*28933 FILLER_94_65
*28934 FILLER_94_657
*28935 FILLER_94_669
*28936 FILLER_94_681
*28937 FILLER_94_693
*28938 FILLER_94_699
*28939 FILLER_94_7
*28940 FILLER_94_701
*28941 FILLER_94_713
*28942 FILLER_94_725
*28943 FILLER_94_737
*28944 FILLER_94_749
*28945 FILLER_94_755
*28946 FILLER_94_757
*28947 FILLER_94_769
*28948 FILLER_94_77
*28949 FILLER_94_781
*28950 FILLER_94_793
*28951 FILLER_94_805
*28952 FILLER_94_811
*28953 FILLER_94_813
*28954 FILLER_94_825
*28955 FILLER_94_83
*28956 FILLER_94_837
*28957 FILLER_94_849
*28958 FILLER_94_85
*28959 FILLER_94_861
*28960 FILLER_94_867
*28961 FILLER_94_869
*28962 FILLER_94_881
*28963 FILLER_94_893
*28964 FILLER_94_905
*28965 FILLER_94_917
*28966 FILLER_94_923
*28967 FILLER_94_925
*28968 FILLER_94_937
*28969 FILLER_94_949
*28970 FILLER_94_961
*28971 FILLER_94_97
*28972 FILLER_94_973
*28973 FILLER_94_979
*28974 FILLER_94_981
*28975 FILLER_94_993
*28976 FILLER_95_1001
*28977 FILLER_95_1007
*28978 FILLER_95_1009
*28979 FILLER_95_1021
*28980 FILLER_95_1033
*28981 FILLER_95_1045
*28982 FILLER_95_105
*28983 FILLER_95_1057
*28984 FILLER_95_1063
*28985 FILLER_95_1065
*28986 FILLER_95_1077
*28987 FILLER_95_1089
*28988 FILLER_95_1101
*28989 FILLER_95_111
*28990 FILLER_95_1113
*28991 FILLER_95_1119
*28992 FILLER_95_1121
*28993 FILLER_95_113
*28994 FILLER_95_1133
*28995 FILLER_95_1145
*28996 FILLER_95_1157
*28997 FILLER_95_1169
*28998 FILLER_95_1175
*28999 FILLER_95_1177
*29000 FILLER_95_1189
*29001 FILLER_95_1201
*29002 FILLER_95_1213
*29003 FILLER_95_1225
*29004 FILLER_95_1231
*29005 FILLER_95_1233
*29006 FILLER_95_1245
*29007 FILLER_95_125
*29008 FILLER_95_1257
*29009 FILLER_95_1269
*29010 FILLER_95_1276
*29011 FILLER_95_137
*29012 FILLER_95_149
*29013 FILLER_95_161
*29014 FILLER_95_167
*29015 FILLER_95_169
*29016 FILLER_95_181
*29017 FILLER_95_19
*29018 FILLER_95_193
*29019 FILLER_95_205
*29020 FILLER_95_217
*29021 FILLER_95_223
*29022 FILLER_95_225
*29023 FILLER_95_237
*29024 FILLER_95_249
*29025 FILLER_95_261
*29026 FILLER_95_273
*29027 FILLER_95_279
*29028 FILLER_95_281
*29029 FILLER_95_293
*29030 FILLER_95_3
*29031 FILLER_95_305
*29032 FILLER_95_31
*29033 FILLER_95_317
*29034 FILLER_95_329
*29035 FILLER_95_335
*29036 FILLER_95_337
*29037 FILLER_95_349
*29038 FILLER_95_361
*29039 FILLER_95_373
*29040 FILLER_95_385
*29041 FILLER_95_391
*29042 FILLER_95_393
*29043 FILLER_95_405
*29044 FILLER_95_417
*29045 FILLER_95_429
*29046 FILLER_95_43
*29047 FILLER_95_441
*29048 FILLER_95_447
*29049 FILLER_95_449
*29050 FILLER_95_461
*29051 FILLER_95_473
*29052 FILLER_95_485
*29053 FILLER_95_497
*29054 FILLER_95_503
*29055 FILLER_95_505
*29056 FILLER_95_517
*29057 FILLER_95_529
*29058 FILLER_95_541
*29059 FILLER_95_55
*29060 FILLER_95_553
*29061 FILLER_95_559
*29062 FILLER_95_561
*29063 FILLER_95_57
*29064 FILLER_95_573
*29065 FILLER_95_585
*29066 FILLER_95_597
*29067 FILLER_95_609
*29068 FILLER_95_615
*29069 FILLER_95_617
*29070 FILLER_95_629
*29071 FILLER_95_641
*29072 FILLER_95_653
*29073 FILLER_95_665
*29074 FILLER_95_671
*29075 FILLER_95_673
*29076 FILLER_95_685
*29077 FILLER_95_69
*29078 FILLER_95_697
*29079 FILLER_95_7
*29080 FILLER_95_709
*29081 FILLER_95_721
*29082 FILLER_95_727
*29083 FILLER_95_729
*29084 FILLER_95_741
*29085 FILLER_95_753
*29086 FILLER_95_765
*29087 FILLER_95_777
*29088 FILLER_95_783
*29089 FILLER_95_785
*29090 FILLER_95_797
*29091 FILLER_95_809
*29092 FILLER_95_81
*29093 FILLER_95_821
*29094 FILLER_95_833
*29095 FILLER_95_839
*29096 FILLER_95_841
*29097 FILLER_95_853
*29098 FILLER_95_865
*29099 FILLER_95_877
*29100 FILLER_95_889
*29101 FILLER_95_895
*29102 FILLER_95_897
*29103 FILLER_95_909
*29104 FILLER_95_921
*29105 FILLER_95_93
*29106 FILLER_95_933
*29107 FILLER_95_945
*29108 FILLER_95_951
*29109 FILLER_95_953
*29110 FILLER_95_965
*29111 FILLER_95_977
*29112 FILLER_95_989
*29113 FILLER_96_1005
*29114 FILLER_96_1017
*29115 FILLER_96_1029
*29116 FILLER_96_1035
*29117 FILLER_96_1037
*29118 FILLER_96_1049
*29119 FILLER_96_1061
*29120 FILLER_96_1073
*29121 FILLER_96_1085
*29122 FILLER_96_109
*29123 FILLER_96_1091
*29124 FILLER_96_1093
*29125 FILLER_96_1105
*29126 FILLER_96_1117
*29127 FILLER_96_1129
*29128 FILLER_96_1141
*29129 FILLER_96_1147
*29130 FILLER_96_1149
*29131 FILLER_96_1161
*29132 FILLER_96_1173
*29133 FILLER_96_1185
*29134 FILLER_96_1197
*29135 FILLER_96_1203
*29136 FILLER_96_1205
*29137 FILLER_96_121
*29138 FILLER_96_1217
*29139 FILLER_96_1229
*29140 FILLER_96_1241
*29141 FILLER_96_1253
*29142 FILLER_96_1259
*29143 FILLER_96_1261
*29144 FILLER_96_1276
*29145 FILLER_96_133
*29146 FILLER_96_139
*29147 FILLER_96_141
*29148 FILLER_96_153
*29149 FILLER_96_165
*29150 FILLER_96_177
*29151 FILLER_96_189
*29152 FILLER_96_19
*29153 FILLER_96_195
*29154 FILLER_96_197
*29155 FILLER_96_209
*29156 FILLER_96_221
*29157 FILLER_96_233
*29158 FILLER_96_245
*29159 FILLER_96_251
*29160 FILLER_96_253
*29161 FILLER_96_265
*29162 FILLER_96_27
*29163 FILLER_96_277
*29164 FILLER_96_289
*29165 FILLER_96_29
*29166 FILLER_96_3
*29167 FILLER_96_301
*29168 FILLER_96_307
*29169 FILLER_96_309
*29170 FILLER_96_321
*29171 FILLER_96_333
*29172 FILLER_96_345
*29173 FILLER_96_357
*29174 FILLER_96_363
*29175 FILLER_96_365
*29176 FILLER_96_377
*29177 FILLER_96_389
*29178 FILLER_96_401
*29179 FILLER_96_41
*29180 FILLER_96_413
*29181 FILLER_96_419
*29182 FILLER_96_421
*29183 FILLER_96_433
*29184 FILLER_96_445
*29185 FILLER_96_457
*29186 FILLER_96_469
*29187 FILLER_96_475
*29188 FILLER_96_477
*29189 FILLER_96_489
*29190 FILLER_96_501
*29191 FILLER_96_513
*29192 FILLER_96_525
*29193 FILLER_96_53
*29194 FILLER_96_531
*29195 FILLER_96_533
*29196 FILLER_96_545
*29197 FILLER_96_557
*29198 FILLER_96_569
*29199 FILLER_96_581
*29200 FILLER_96_587
*29201 FILLER_96_589
*29202 FILLER_96_601
*29203 FILLER_96_613
*29204 FILLER_96_625
*29205 FILLER_96_637
*29206 FILLER_96_643
*29207 FILLER_96_645
*29208 FILLER_96_65
*29209 FILLER_96_657
*29210 FILLER_96_669
*29211 FILLER_96_681
*29212 FILLER_96_693
*29213 FILLER_96_699
*29214 FILLER_96_7
*29215 FILLER_96_701
*29216 FILLER_96_713
*29217 FILLER_96_725
*29218 FILLER_96_737
*29219 FILLER_96_749
*29220 FILLER_96_755
*29221 FILLER_96_757
*29222 FILLER_96_769
*29223 FILLER_96_77
*29224 FILLER_96_781
*29225 FILLER_96_793
*29226 FILLER_96_805
*29227 FILLER_96_811
*29228 FILLER_96_813
*29229 FILLER_96_825
*29230 FILLER_96_83
*29231 FILLER_96_837
*29232 FILLER_96_849
*29233 FILLER_96_85
*29234 FILLER_96_861
*29235 FILLER_96_867
*29236 FILLER_96_869
*29237 FILLER_96_881
*29238 FILLER_96_893
*29239 FILLER_96_905
*29240 FILLER_96_917
*29241 FILLER_96_923
*29242 FILLER_96_925
*29243 FILLER_96_937
*29244 FILLER_96_949
*29245 FILLER_96_961
*29246 FILLER_96_97
*29247 FILLER_96_973
*29248 FILLER_96_979
*29249 FILLER_96_981
*29250 FILLER_96_993
*29251 FILLER_97_1001
*29252 FILLER_97_1007
*29253 FILLER_97_1009
*29254 FILLER_97_1021
*29255 FILLER_97_1033
*29256 FILLER_97_1045
*29257 FILLER_97_105
*29258 FILLER_97_1057
*29259 FILLER_97_1063
*29260 FILLER_97_1065
*29261 FILLER_97_1077
*29262 FILLER_97_1089
*29263 FILLER_97_1101
*29264 FILLER_97_111
*29265 FILLER_97_1113
*29266 FILLER_97_1119
*29267 FILLER_97_1121
*29268 FILLER_97_113
*29269 FILLER_97_1133
*29270 FILLER_97_1145
*29271 FILLER_97_1157
*29272 FILLER_97_1169
*29273 FILLER_97_1175
*29274 FILLER_97_1177
*29275 FILLER_97_1189
*29276 FILLER_97_1201
*29277 FILLER_97_1213
*29278 FILLER_97_1225
*29279 FILLER_97_1231
*29280 FILLER_97_1233
*29281 FILLER_97_1245
*29282 FILLER_97_125
*29283 FILLER_97_1257
*29284 FILLER_97_1269
*29285 FILLER_97_1276
*29286 FILLER_97_137
*29287 FILLER_97_149
*29288 FILLER_97_15
*29289 FILLER_97_161
*29290 FILLER_97_167
*29291 FILLER_97_169
*29292 FILLER_97_181
*29293 FILLER_97_193
*29294 FILLER_97_205
*29295 FILLER_97_217
*29296 FILLER_97_223
*29297 FILLER_97_225
*29298 FILLER_97_237
*29299 FILLER_97_249
*29300 FILLER_97_261
*29301 FILLER_97_27
*29302 FILLER_97_273
*29303 FILLER_97_279
*29304 FILLER_97_281
*29305 FILLER_97_293
*29306 FILLER_97_3
*29307 FILLER_97_305
*29308 FILLER_97_317
*29309 FILLER_97_329
*29310 FILLER_97_335
*29311 FILLER_97_337
*29312 FILLER_97_349
*29313 FILLER_97_361
*29314 FILLER_97_373
*29315 FILLER_97_385
*29316 FILLER_97_39
*29317 FILLER_97_391
*29318 FILLER_97_393
*29319 FILLER_97_405
*29320 FILLER_97_417
*29321 FILLER_97_429
*29322 FILLER_97_441
*29323 FILLER_97_447
*29324 FILLER_97_449
*29325 FILLER_97_461
*29326 FILLER_97_473
*29327 FILLER_97_485
*29328 FILLER_97_497
*29329 FILLER_97_503
*29330 FILLER_97_505
*29331 FILLER_97_51
*29332 FILLER_97_517
*29333 FILLER_97_529
*29334 FILLER_97_541
*29335 FILLER_97_55
*29336 FILLER_97_553
*29337 FILLER_97_559
*29338 FILLER_97_561
*29339 FILLER_97_57
*29340 FILLER_97_573
*29341 FILLER_97_585
*29342 FILLER_97_597
*29343 FILLER_97_609
*29344 FILLER_97_615
*29345 FILLER_97_617
*29346 FILLER_97_629
*29347 FILLER_97_641
*29348 FILLER_97_653
*29349 FILLER_97_665
*29350 FILLER_97_671
*29351 FILLER_97_673
*29352 FILLER_97_685
*29353 FILLER_97_69
*29354 FILLER_97_697
*29355 FILLER_97_709
*29356 FILLER_97_721
*29357 FILLER_97_727
*29358 FILLER_97_729
*29359 FILLER_97_741
*29360 FILLER_97_753
*29361 FILLER_97_765
*29362 FILLER_97_777
*29363 FILLER_97_783
*29364 FILLER_97_785
*29365 FILLER_97_797
*29366 FILLER_97_809
*29367 FILLER_97_81
*29368 FILLER_97_821
*29369 FILLER_97_833
*29370 FILLER_97_839
*29371 FILLER_97_841
*29372 FILLER_97_853
*29373 FILLER_97_865
*29374 FILLER_97_877
*29375 FILLER_97_889
*29376 FILLER_97_895
*29377 FILLER_97_897
*29378 FILLER_97_909
*29379 FILLER_97_921
*29380 FILLER_97_93
*29381 FILLER_97_933
*29382 FILLER_97_945
*29383 FILLER_97_951
*29384 FILLER_97_953
*29385 FILLER_97_965
*29386 FILLER_97_977
*29387 FILLER_97_989
*29388 FILLER_98_1005
*29389 FILLER_98_1017
*29390 FILLER_98_1029
*29391 FILLER_98_1035
*29392 FILLER_98_1037
*29393 FILLER_98_1049
*29394 FILLER_98_1061
*29395 FILLER_98_1073
*29396 FILLER_98_1085
*29397 FILLER_98_109
*29398 FILLER_98_1091
*29399 FILLER_98_1093
*29400 FILLER_98_1105
*29401 FILLER_98_1117
*29402 FILLER_98_1129
*29403 FILLER_98_1141
*29404 FILLER_98_1147
*29405 FILLER_98_1149
*29406 FILLER_98_1161
*29407 FILLER_98_1173
*29408 FILLER_98_1185
*29409 FILLER_98_1197
*29410 FILLER_98_1203
*29411 FILLER_98_1205
*29412 FILLER_98_121
*29413 FILLER_98_1217
*29414 FILLER_98_1229
*29415 FILLER_98_1241
*29416 FILLER_98_1253
*29417 FILLER_98_1259
*29418 FILLER_98_1261
*29419 FILLER_98_1273
*29420 FILLER_98_133
*29421 FILLER_98_139
*29422 FILLER_98_141
*29423 FILLER_98_15
*29424 FILLER_98_153
*29425 FILLER_98_165
*29426 FILLER_98_177
*29427 FILLER_98_189
*29428 FILLER_98_195
*29429 FILLER_98_197
*29430 FILLER_98_209
*29431 FILLER_98_221
*29432 FILLER_98_233
*29433 FILLER_98_245
*29434 FILLER_98_251
*29435 FILLER_98_253
*29436 FILLER_98_265
*29437 FILLER_98_27
*29438 FILLER_98_277
*29439 FILLER_98_289
*29440 FILLER_98_29
*29441 FILLER_98_3
*29442 FILLER_98_301
*29443 FILLER_98_307
*29444 FILLER_98_309
*29445 FILLER_98_321
*29446 FILLER_98_333
*29447 FILLER_98_345
*29448 FILLER_98_357
*29449 FILLER_98_363
*29450 FILLER_98_365
*29451 FILLER_98_377
*29452 FILLER_98_389
*29453 FILLER_98_401
*29454 FILLER_98_41
*29455 FILLER_98_413
*29456 FILLER_98_419
*29457 FILLER_98_421
*29458 FILLER_98_433
*29459 FILLER_98_445
*29460 FILLER_98_457
*29461 FILLER_98_469
*29462 FILLER_98_475
*29463 FILLER_98_477
*29464 FILLER_98_489
*29465 FILLER_98_501
*29466 FILLER_98_513
*29467 FILLER_98_525
*29468 FILLER_98_53
*29469 FILLER_98_531
*29470 FILLER_98_533
*29471 FILLER_98_545
*29472 FILLER_98_557
*29473 FILLER_98_569
*29474 FILLER_98_581
*29475 FILLER_98_587
*29476 FILLER_98_589
*29477 FILLER_98_601
*29478 FILLER_98_613
*29479 FILLER_98_625
*29480 FILLER_98_637
*29481 FILLER_98_643
*29482 FILLER_98_645
*29483 FILLER_98_65
*29484 FILLER_98_657
*29485 FILLER_98_669
*29486 FILLER_98_681
*29487 FILLER_98_693
*29488 FILLER_98_699
*29489 FILLER_98_701
*29490 FILLER_98_713
*29491 FILLER_98_725
*29492 FILLER_98_737
*29493 FILLER_98_749
*29494 FILLER_98_755
*29495 FILLER_98_757
*29496 FILLER_98_769
*29497 FILLER_98_77
*29498 FILLER_98_781
*29499 FILLER_98_793
*29500 FILLER_98_805
*29501 FILLER_98_811
*29502 FILLER_98_813
*29503 FILLER_98_825
*29504 FILLER_98_83
*29505 FILLER_98_837
*29506 FILLER_98_849
*29507 FILLER_98_85
*29508 FILLER_98_861
*29509 FILLER_98_867
*29510 FILLER_98_869
*29511 FILLER_98_881
*29512 FILLER_98_893
*29513 FILLER_98_905
*29514 FILLER_98_917
*29515 FILLER_98_923
*29516 FILLER_98_925
*29517 FILLER_98_937
*29518 FILLER_98_949
*29519 FILLER_98_961
*29520 FILLER_98_97
*29521 FILLER_98_973
*29522 FILLER_98_979
*29523 FILLER_98_981
*29524 FILLER_98_993
*29525 FILLER_99_1001
*29526 FILLER_99_1007
*29527 FILLER_99_1009
*29528 FILLER_99_1021
*29529 FILLER_99_1033
*29530 FILLER_99_1045
*29531 FILLER_99_105
*29532 FILLER_99_1057
*29533 FILLER_99_1063
*29534 FILLER_99_1065
*29535 FILLER_99_1077
*29536 FILLER_99_1089
*29537 FILLER_99_1101
*29538 FILLER_99_111
*29539 FILLER_99_1113
*29540 FILLER_99_1119
*29541 FILLER_99_1121
*29542 FILLER_99_113
*29543 FILLER_99_1133
*29544 FILLER_99_1145
*29545 FILLER_99_1157
*29546 FILLER_99_1169
*29547 FILLER_99_1175
*29548 FILLER_99_1177
*29549 FILLER_99_1189
*29550 FILLER_99_1201
*29551 FILLER_99_1213
*29552 FILLER_99_1225
*29553 FILLER_99_1231
*29554 FILLER_99_1233
*29555 FILLER_99_1245
*29556 FILLER_99_125
*29557 FILLER_99_1257
*29558 FILLER_99_1269
*29559 FILLER_99_1276
*29560 FILLER_99_137
*29561 FILLER_99_149
*29562 FILLER_99_161
*29563 FILLER_99_167
*29564 FILLER_99_169
*29565 FILLER_99_181
*29566 FILLER_99_19
*29567 FILLER_99_193
*29568 FILLER_99_205
*29569 FILLER_99_217
*29570 FILLER_99_223
*29571 FILLER_99_225
*29572 FILLER_99_237
*29573 FILLER_99_249
*29574 FILLER_99_261
*29575 FILLER_99_273
*29576 FILLER_99_279
*29577 FILLER_99_281
*29578 FILLER_99_293
*29579 FILLER_99_3
*29580 FILLER_99_305
*29581 FILLER_99_31
*29582 FILLER_99_317
*29583 FILLER_99_329
*29584 FILLER_99_335
*29585 FILLER_99_337
*29586 FILLER_99_349
*29587 FILLER_99_361
*29588 FILLER_99_373
*29589 FILLER_99_385
*29590 FILLER_99_391
*29591 FILLER_99_393
*29592 FILLER_99_405
*29593 FILLER_99_417
*29594 FILLER_99_429
*29595 FILLER_99_43
*29596 FILLER_99_441
*29597 FILLER_99_447
*29598 FILLER_99_449
*29599 FILLER_99_461
*29600 FILLER_99_473
*29601 FILLER_99_485
*29602 FILLER_99_497
*29603 FILLER_99_503
*29604 FILLER_99_505
*29605 FILLER_99_517
*29606 FILLER_99_529
*29607 FILLER_99_541
*29608 FILLER_99_55
*29609 FILLER_99_553
*29610 FILLER_99_559
*29611 FILLER_99_561
*29612 FILLER_99_57
*29613 FILLER_99_573
*29614 FILLER_99_585
*29615 FILLER_99_597
*29616 FILLER_99_609
*29617 FILLER_99_615
*29618 FILLER_99_617
*29619 FILLER_99_629
*29620 FILLER_99_641
*29621 FILLER_99_653
*29622 FILLER_99_665
*29623 FILLER_99_671
*29624 FILLER_99_673
*29625 FILLER_99_685
*29626 FILLER_99_69
*29627 FILLER_99_697
*29628 FILLER_99_7
*29629 FILLER_99_709
*29630 FILLER_99_721
*29631 FILLER_99_727
*29632 FILLER_99_729
*29633 FILLER_99_741
*29634 FILLER_99_753
*29635 FILLER_99_765
*29636 FILLER_99_777
*29637 FILLER_99_783
*29638 FILLER_99_785
*29639 FILLER_99_797
*29640 FILLER_99_809
*29641 FILLER_99_81
*29642 FILLER_99_821
*29643 FILLER_99_833
*29644 FILLER_99_839
*29645 FILLER_99_841
*29646 FILLER_99_853
*29647 FILLER_99_865
*29648 FILLER_99_877
*29649 FILLER_99_889
*29650 FILLER_99_895
*29651 FILLER_99_897
*29652 FILLER_99_909
*29653 FILLER_99_921
*29654 FILLER_99_93
*29655 FILLER_99_933
*29656 FILLER_99_945
*29657 FILLER_99_951
*29658 FILLER_99_953
*29659 FILLER_99_965
*29660 FILLER_99_977
*29661 FILLER_99_989
*29662 FILLER_9_1001
*29663 FILLER_9_1007
*29664 FILLER_9_1009
*29665 FILLER_9_1021
*29666 FILLER_9_1033
*29667 FILLER_9_1045
*29668 FILLER_9_105
*29669 FILLER_9_1057
*29670 FILLER_9_1063
*29671 FILLER_9_1065
*29672 FILLER_9_1077
*29673 FILLER_9_1089
*29674 FILLER_9_1101
*29675 FILLER_9_111
*29676 FILLER_9_1113
*29677 FILLER_9_1119
*29678 FILLER_9_1121
*29679 FILLER_9_113
*29680 FILLER_9_1133
*29681 FILLER_9_1145
*29682 FILLER_9_1157
*29683 FILLER_9_1169
*29684 FILLER_9_1175
*29685 FILLER_9_1177
*29686 FILLER_9_1189
*29687 FILLER_9_1201
*29688 FILLER_9_1213
*29689 FILLER_9_1225
*29690 FILLER_9_1231
*29691 FILLER_9_1233
*29692 FILLER_9_1245
*29693 FILLER_9_125
*29694 FILLER_9_1257
*29695 FILLER_9_1269
*29696 FILLER_9_137
*29697 FILLER_9_149
*29698 FILLER_9_15
*29699 FILLER_9_161
*29700 FILLER_9_167
*29701 FILLER_9_169
*29702 FILLER_9_181
*29703 FILLER_9_193
*29704 FILLER_9_205
*29705 FILLER_9_217
*29706 FILLER_9_223
*29707 FILLER_9_225
*29708 FILLER_9_237
*29709 FILLER_9_249
*29710 FILLER_9_261
*29711 FILLER_9_27
*29712 FILLER_9_273
*29713 FILLER_9_279
*29714 FILLER_9_281
*29715 FILLER_9_293
*29716 FILLER_9_3
*29717 FILLER_9_305
*29718 FILLER_9_317
*29719 FILLER_9_329
*29720 FILLER_9_335
*29721 FILLER_9_337
*29722 FILLER_9_349
*29723 FILLER_9_361
*29724 FILLER_9_373
*29725 FILLER_9_385
*29726 FILLER_9_39
*29727 FILLER_9_391
*29728 FILLER_9_393
*29729 FILLER_9_405
*29730 FILLER_9_417
*29731 FILLER_9_429
*29732 FILLER_9_441
*29733 FILLER_9_447
*29734 FILLER_9_449
*29735 FILLER_9_461
*29736 FILLER_9_473
*29737 FILLER_9_485
*29738 FILLER_9_497
*29739 FILLER_9_503
*29740 FILLER_9_505
*29741 FILLER_9_51
*29742 FILLER_9_517
*29743 FILLER_9_529
*29744 FILLER_9_541
*29745 FILLER_9_55
*29746 FILLER_9_553
*29747 FILLER_9_559
*29748 FILLER_9_561
*29749 FILLER_9_57
*29750 FILLER_9_573
*29751 FILLER_9_585
*29752 FILLER_9_597
*29753 FILLER_9_609
*29754 FILLER_9_615
*29755 FILLER_9_617
*29756 FILLER_9_629
*29757 FILLER_9_641
*29758 FILLER_9_653
*29759 FILLER_9_665
*29760 FILLER_9_671
*29761 FILLER_9_673
*29762 FILLER_9_685
*29763 FILLER_9_69
*29764 FILLER_9_697
*29765 FILLER_9_709
*29766 FILLER_9_721
*29767 FILLER_9_727
*29768 FILLER_9_729
*29769 FILLER_9_741
*29770 FILLER_9_753
*29771 FILLER_9_765
*29772 FILLER_9_777
*29773 FILLER_9_783
*29774 FILLER_9_785
*29775 FILLER_9_797
*29776 FILLER_9_809
*29777 FILLER_9_81
*29778 FILLER_9_821
*29779 FILLER_9_833
*29780 FILLER_9_839
*29781 FILLER_9_841
*29782 FILLER_9_853
*29783 FILLER_9_865
*29784 FILLER_9_877
*29785 FILLER_9_889
*29786 FILLER_9_895
*29787 FILLER_9_897
*29788 FILLER_9_909
*29789 FILLER_9_921
*29790 FILLER_9_93
*29791 FILLER_9_933
*29792 FILLER_9_945
*29793 FILLER_9_951
*29794 FILLER_9_953
*29795 FILLER_9_965
*29796 FILLER_9_977
*29797 FILLER_9_989
*29798 PHY_EDGE_ROW_0_Left_212
*29799 PHY_EDGE_ROW_0_Right_0
*29800 PHY_EDGE_ROW_100_Left_312
*29801 PHY_EDGE_ROW_100_Right_100
*29802 PHY_EDGE_ROW_101_Left_313
*29803 PHY_EDGE_ROW_101_Right_101
*29804 PHY_EDGE_ROW_102_Left_314
*29805 PHY_EDGE_ROW_102_Right_102
*29806 PHY_EDGE_ROW_103_Left_315
*29807 PHY_EDGE_ROW_103_Right_103
*29808 PHY_EDGE_ROW_104_Left_316
*29809 PHY_EDGE_ROW_104_Right_104
*29810 PHY_EDGE_ROW_105_Left_317
*29811 PHY_EDGE_ROW_105_Right_105
*29812 PHY_EDGE_ROW_106_Left_318
*29813 PHY_EDGE_ROW_106_Right_106
*29814 PHY_EDGE_ROW_107_Left_319
*29815 PHY_EDGE_ROW_107_Right_107
*29816 PHY_EDGE_ROW_108_Left_320
*29817 PHY_EDGE_ROW_108_Right_108
*29818 PHY_EDGE_ROW_109_Left_321
*29819 PHY_EDGE_ROW_109_Right_109
*29820 PHY_EDGE_ROW_10_Left_222
*29821 PHY_EDGE_ROW_10_Right_10
*29822 PHY_EDGE_ROW_110_Left_322
*29823 PHY_EDGE_ROW_110_Right_110
*29824 PHY_EDGE_ROW_111_Left_323
*29825 PHY_EDGE_ROW_111_Right_111
*29826 PHY_EDGE_ROW_112_Left_324
*29827 PHY_EDGE_ROW_112_Right_112
*29828 PHY_EDGE_ROW_113_Left_325
*29829 PHY_EDGE_ROW_113_Right_113
*29830 PHY_EDGE_ROW_114_Left_326
*29831 PHY_EDGE_ROW_114_Right_114
*29832 PHY_EDGE_ROW_115_Left_327
*29833 PHY_EDGE_ROW_115_Right_115
*29834 PHY_EDGE_ROW_116_Left_328
*29835 PHY_EDGE_ROW_116_Right_116
*29836 PHY_EDGE_ROW_117_Left_329
*29837 PHY_EDGE_ROW_117_Right_117
*29838 PHY_EDGE_ROW_118_Left_330
*29839 PHY_EDGE_ROW_118_Right_118
*29840 PHY_EDGE_ROW_119_Left_331
*29841 PHY_EDGE_ROW_119_Right_119
*29842 PHY_EDGE_ROW_11_Left_223
*29843 PHY_EDGE_ROW_11_Right_11
*29844 PHY_EDGE_ROW_120_Left_332
*29845 PHY_EDGE_ROW_120_Right_120
*29846 PHY_EDGE_ROW_121_Left_333
*29847 PHY_EDGE_ROW_121_Right_121
*29848 PHY_EDGE_ROW_122_Left_334
*29849 PHY_EDGE_ROW_122_Right_122
*29850 PHY_EDGE_ROW_123_Left_335
*29851 PHY_EDGE_ROW_123_Right_123
*29852 PHY_EDGE_ROW_124_Left_336
*29853 PHY_EDGE_ROW_124_Right_124
*29854 PHY_EDGE_ROW_125_Left_337
*29855 PHY_EDGE_ROW_125_Right_125
*29856 PHY_EDGE_ROW_126_Left_338
*29857 PHY_EDGE_ROW_126_Right_126
*29858 PHY_EDGE_ROW_127_Left_339
*29859 PHY_EDGE_ROW_127_Right_127
*29860 PHY_EDGE_ROW_128_Left_340
*29861 PHY_EDGE_ROW_128_Right_128
*29862 PHY_EDGE_ROW_129_Left_341
*29863 PHY_EDGE_ROW_129_Right_129
*29864 PHY_EDGE_ROW_12_Left_224
*29865 PHY_EDGE_ROW_12_Right_12
*29866 PHY_EDGE_ROW_130_Left_342
*29867 PHY_EDGE_ROW_130_Right_130
*29868 PHY_EDGE_ROW_131_Left_343
*29869 PHY_EDGE_ROW_131_Right_131
*29870 PHY_EDGE_ROW_132_Left_344
*29871 PHY_EDGE_ROW_132_Right_132
*29872 PHY_EDGE_ROW_133_Left_345
*29873 PHY_EDGE_ROW_133_Right_133
*29874 PHY_EDGE_ROW_134_Left_346
*29875 PHY_EDGE_ROW_134_Right_134
*29876 PHY_EDGE_ROW_135_Left_347
*29877 PHY_EDGE_ROW_135_Right_135
*29878 PHY_EDGE_ROW_136_Left_348
*29879 PHY_EDGE_ROW_136_Right_136
*29880 PHY_EDGE_ROW_137_Left_349
*29881 PHY_EDGE_ROW_137_Right_137
*29882 PHY_EDGE_ROW_138_Left_350
*29883 PHY_EDGE_ROW_138_Right_138
*29884 PHY_EDGE_ROW_139_Left_351
*29885 PHY_EDGE_ROW_139_Right_139
*29886 PHY_EDGE_ROW_13_Left_225
*29887 PHY_EDGE_ROW_13_Right_13
*29888 PHY_EDGE_ROW_140_Left_352
*29889 PHY_EDGE_ROW_140_Right_140
*29890 PHY_EDGE_ROW_141_Left_353
*29891 PHY_EDGE_ROW_141_Right_141
*29892 PHY_EDGE_ROW_142_Left_354
*29893 PHY_EDGE_ROW_142_Right_142
*29894 PHY_EDGE_ROW_143_Left_355
*29895 PHY_EDGE_ROW_143_Right_143
*29896 PHY_EDGE_ROW_144_Left_356
*29897 PHY_EDGE_ROW_144_Right_144
*29898 PHY_EDGE_ROW_145_Left_357
*29899 PHY_EDGE_ROW_145_Right_145
*29900 PHY_EDGE_ROW_146_Left_358
*29901 PHY_EDGE_ROW_146_Right_146
*29902 PHY_EDGE_ROW_147_Left_359
*29903 PHY_EDGE_ROW_147_Right_147
*29904 PHY_EDGE_ROW_148_Left_360
*29905 PHY_EDGE_ROW_148_Right_148
*29906 PHY_EDGE_ROW_149_Left_361
*29907 PHY_EDGE_ROW_149_Right_149
*29908 PHY_EDGE_ROW_14_Left_226
*29909 PHY_EDGE_ROW_14_Right_14
*29910 PHY_EDGE_ROW_150_Left_362
*29911 PHY_EDGE_ROW_150_Right_150
*29912 PHY_EDGE_ROW_151_Left_363
*29913 PHY_EDGE_ROW_151_Right_151
*29914 PHY_EDGE_ROW_152_Left_364
*29915 PHY_EDGE_ROW_152_Right_152
*29916 PHY_EDGE_ROW_153_Left_365
*29917 PHY_EDGE_ROW_153_Right_153
*29918 PHY_EDGE_ROW_154_Left_366
*29919 PHY_EDGE_ROW_154_Right_154
*29920 PHY_EDGE_ROW_155_Left_367
*29921 PHY_EDGE_ROW_155_Right_155
*29922 PHY_EDGE_ROW_156_Left_368
*29923 PHY_EDGE_ROW_156_Right_156
*29924 PHY_EDGE_ROW_157_Left_369
*29925 PHY_EDGE_ROW_157_Right_157
*29926 PHY_EDGE_ROW_158_Left_370
*29927 PHY_EDGE_ROW_158_Right_158
*29928 PHY_EDGE_ROW_159_Left_371
*29929 PHY_EDGE_ROW_159_Right_159
*29930 PHY_EDGE_ROW_15_Left_227
*29931 PHY_EDGE_ROW_15_Right_15
*29932 PHY_EDGE_ROW_160_Left_372
*29933 PHY_EDGE_ROW_160_Right_160
*29934 PHY_EDGE_ROW_161_Left_373
*29935 PHY_EDGE_ROW_161_Right_161
*29936 PHY_EDGE_ROW_162_Left_374
*29937 PHY_EDGE_ROW_162_Right_162
*29938 PHY_EDGE_ROW_163_Left_375
*29939 PHY_EDGE_ROW_163_Right_163
*29940 PHY_EDGE_ROW_164_Left_376
*29941 PHY_EDGE_ROW_164_Right_164
*29942 PHY_EDGE_ROW_165_Left_377
*29943 PHY_EDGE_ROW_165_Right_165
*29944 PHY_EDGE_ROW_166_Left_378
*29945 PHY_EDGE_ROW_166_Right_166
*29946 PHY_EDGE_ROW_167_Left_379
*29947 PHY_EDGE_ROW_167_Right_167
*29948 PHY_EDGE_ROW_168_Left_380
*29949 PHY_EDGE_ROW_168_Right_168
*29950 PHY_EDGE_ROW_169_Left_381
*29951 PHY_EDGE_ROW_169_Right_169
*29952 PHY_EDGE_ROW_16_Left_228
*29953 PHY_EDGE_ROW_16_Right_16
*29954 PHY_EDGE_ROW_170_Left_382
*29955 PHY_EDGE_ROW_170_Right_170
*29956 PHY_EDGE_ROW_171_Left_383
*29957 PHY_EDGE_ROW_171_Right_171
*29958 PHY_EDGE_ROW_172_Left_384
*29959 PHY_EDGE_ROW_172_Right_172
*29960 PHY_EDGE_ROW_173_Left_385
*29961 PHY_EDGE_ROW_173_Right_173
*29962 PHY_EDGE_ROW_174_Left_386
*29963 PHY_EDGE_ROW_174_Right_174
*29964 PHY_EDGE_ROW_175_Left_387
*29965 PHY_EDGE_ROW_175_Right_175
*29966 PHY_EDGE_ROW_176_Left_388
*29967 PHY_EDGE_ROW_176_Right_176
*29968 PHY_EDGE_ROW_177_Left_389
*29969 PHY_EDGE_ROW_177_Right_177
*29970 PHY_EDGE_ROW_178_Left_390
*29971 PHY_EDGE_ROW_178_Right_178
*29972 PHY_EDGE_ROW_179_Left_391
*29973 PHY_EDGE_ROW_179_Right_179
*29974 PHY_EDGE_ROW_17_Left_229
*29975 PHY_EDGE_ROW_17_Right_17
*29976 PHY_EDGE_ROW_180_Left_392
*29977 PHY_EDGE_ROW_180_Right_180
*29978 PHY_EDGE_ROW_181_Left_393
*29979 PHY_EDGE_ROW_181_Right_181
*29980 PHY_EDGE_ROW_182_Left_394
*29981 PHY_EDGE_ROW_182_Right_182
*29982 PHY_EDGE_ROW_183_Left_395
*29983 PHY_EDGE_ROW_183_Right_183
*29984 PHY_EDGE_ROW_184_Left_396
*29985 PHY_EDGE_ROW_184_Right_184
*29986 PHY_EDGE_ROW_185_Left_397
*29987 PHY_EDGE_ROW_185_Right_185
*29988 PHY_EDGE_ROW_186_Left_398
*29989 PHY_EDGE_ROW_186_Right_186
*29990 PHY_EDGE_ROW_187_Left_399
*29991 PHY_EDGE_ROW_187_Right_187
*29992 PHY_EDGE_ROW_188_Left_400
*29993 PHY_EDGE_ROW_188_Right_188
*29994 PHY_EDGE_ROW_189_Left_401
*29995 PHY_EDGE_ROW_189_Right_189
*29996 PHY_EDGE_ROW_18_Left_230
*29997 PHY_EDGE_ROW_18_Right_18
*29998 PHY_EDGE_ROW_190_Left_402
*29999 PHY_EDGE_ROW_190_Right_190
*30000 PHY_EDGE_ROW_191_Left_403
*30001 PHY_EDGE_ROW_191_Right_191
*30002 PHY_EDGE_ROW_192_Left_404
*30003 PHY_EDGE_ROW_192_Right_192
*30004 PHY_EDGE_ROW_193_Left_405
*30005 PHY_EDGE_ROW_193_Right_193
*30006 PHY_EDGE_ROW_194_Left_406
*30007 PHY_EDGE_ROW_194_Right_194
*30008 PHY_EDGE_ROW_195_Left_407
*30009 PHY_EDGE_ROW_195_Right_195
*30010 PHY_EDGE_ROW_196_Left_408
*30011 PHY_EDGE_ROW_196_Right_196
*30012 PHY_EDGE_ROW_197_Left_409
*30013 PHY_EDGE_ROW_197_Right_197
*30014 PHY_EDGE_ROW_198_Left_410
*30015 PHY_EDGE_ROW_198_Right_198
*30016 PHY_EDGE_ROW_199_Left_411
*30017 PHY_EDGE_ROW_199_Right_199
*30018 PHY_EDGE_ROW_19_Left_231
*30019 PHY_EDGE_ROW_19_Right_19
*30020 PHY_EDGE_ROW_1_Left_213
*30021 PHY_EDGE_ROW_1_Right_1
*30022 PHY_EDGE_ROW_200_Left_412
*30023 PHY_EDGE_ROW_200_Right_200
*30024 PHY_EDGE_ROW_201_Left_413
*30025 PHY_EDGE_ROW_201_Right_201
*30026 PHY_EDGE_ROW_202_Left_414
*30027 PHY_EDGE_ROW_202_Right_202
*30028 PHY_EDGE_ROW_203_Left_415
*30029 PHY_EDGE_ROW_203_Right_203
*30030 PHY_EDGE_ROW_204_Left_416
*30031 PHY_EDGE_ROW_204_Right_204
*30032 PHY_EDGE_ROW_205_Left_417
*30033 PHY_EDGE_ROW_205_Right_205
*30034 PHY_EDGE_ROW_206_Left_418
*30035 PHY_EDGE_ROW_206_Right_206
*30036 PHY_EDGE_ROW_207_Left_419
*30037 PHY_EDGE_ROW_207_Right_207
*30038 PHY_EDGE_ROW_208_Left_420
*30039 PHY_EDGE_ROW_208_Right_208
*30040 PHY_EDGE_ROW_209_Left_421
*30041 PHY_EDGE_ROW_209_Right_209
*30042 PHY_EDGE_ROW_20_Left_232
*30043 PHY_EDGE_ROW_20_Right_20
*30044 PHY_EDGE_ROW_210_Left_422
*30045 PHY_EDGE_ROW_210_Right_210
*30046 PHY_EDGE_ROW_211_Left_423
*30047 PHY_EDGE_ROW_211_Right_211
*30048 PHY_EDGE_ROW_21_Left_233
*30049 PHY_EDGE_ROW_21_Right_21
*30050 PHY_EDGE_ROW_22_Left_234
*30051 PHY_EDGE_ROW_22_Right_22
*30052 PHY_EDGE_ROW_23_Left_235
*30053 PHY_EDGE_ROW_23_Right_23
*30054 PHY_EDGE_ROW_24_Left_236
*30055 PHY_EDGE_ROW_24_Right_24
*30056 PHY_EDGE_ROW_25_Left_237
*30057 PHY_EDGE_ROW_25_Right_25
*30058 PHY_EDGE_ROW_26_Left_238
*30059 PHY_EDGE_ROW_26_Right_26
*30060 PHY_EDGE_ROW_27_Left_239
*30061 PHY_EDGE_ROW_27_Right_27
*30062 PHY_EDGE_ROW_28_Left_240
*30063 PHY_EDGE_ROW_28_Right_28
*30064 PHY_EDGE_ROW_29_Left_241
*30065 PHY_EDGE_ROW_29_Right_29
*30066 PHY_EDGE_ROW_2_Left_214
*30067 PHY_EDGE_ROW_2_Right_2
*30068 PHY_EDGE_ROW_30_Left_242
*30069 PHY_EDGE_ROW_30_Right_30
*30070 PHY_EDGE_ROW_31_Left_243
*30071 PHY_EDGE_ROW_31_Right_31
*30072 PHY_EDGE_ROW_32_Left_244
*30073 PHY_EDGE_ROW_32_Right_32
*30074 PHY_EDGE_ROW_33_Left_245
*30075 PHY_EDGE_ROW_33_Right_33
*30076 PHY_EDGE_ROW_34_Left_246
*30077 PHY_EDGE_ROW_34_Right_34
*30078 PHY_EDGE_ROW_35_Left_247
*30079 PHY_EDGE_ROW_35_Right_35
*30080 PHY_EDGE_ROW_36_Left_248
*30081 PHY_EDGE_ROW_36_Right_36
*30082 PHY_EDGE_ROW_37_Left_249
*30083 PHY_EDGE_ROW_37_Right_37
*30084 PHY_EDGE_ROW_38_Left_250
*30085 PHY_EDGE_ROW_38_Right_38
*30086 PHY_EDGE_ROW_39_Left_251
*30087 PHY_EDGE_ROW_39_Right_39
*30088 PHY_EDGE_ROW_3_Left_215
*30089 PHY_EDGE_ROW_3_Right_3
*30090 PHY_EDGE_ROW_40_Left_252
*30091 PHY_EDGE_ROW_40_Right_40
*30092 PHY_EDGE_ROW_41_Left_253
*30093 PHY_EDGE_ROW_41_Right_41
*30094 PHY_EDGE_ROW_42_Left_254
*30095 PHY_EDGE_ROW_42_Right_42
*30096 PHY_EDGE_ROW_43_Left_255
*30097 PHY_EDGE_ROW_43_Right_43
*30098 PHY_EDGE_ROW_44_Left_256
*30099 PHY_EDGE_ROW_44_Right_44
*30100 PHY_EDGE_ROW_45_Left_257
*30101 PHY_EDGE_ROW_45_Right_45
*30102 PHY_EDGE_ROW_46_Left_258
*30103 PHY_EDGE_ROW_46_Right_46
*30104 PHY_EDGE_ROW_47_Left_259
*30105 PHY_EDGE_ROW_47_Right_47
*30106 PHY_EDGE_ROW_48_Left_260
*30107 PHY_EDGE_ROW_48_Right_48
*30108 PHY_EDGE_ROW_49_Left_261
*30109 PHY_EDGE_ROW_49_Right_49
*30110 PHY_EDGE_ROW_4_Left_216
*30111 PHY_EDGE_ROW_4_Right_4
*30112 PHY_EDGE_ROW_50_Left_262
*30113 PHY_EDGE_ROW_50_Right_50
*30114 PHY_EDGE_ROW_51_Left_263
*30115 PHY_EDGE_ROW_51_Right_51
*30116 PHY_EDGE_ROW_52_Left_264
*30117 PHY_EDGE_ROW_52_Right_52
*30118 PHY_EDGE_ROW_53_Left_265
*30119 PHY_EDGE_ROW_53_Right_53
*30120 PHY_EDGE_ROW_54_Left_266
*30121 PHY_EDGE_ROW_54_Right_54
*30122 PHY_EDGE_ROW_55_Left_267
*30123 PHY_EDGE_ROW_55_Right_55
*30124 PHY_EDGE_ROW_56_Left_268
*30125 PHY_EDGE_ROW_56_Right_56
*30126 PHY_EDGE_ROW_57_Left_269
*30127 PHY_EDGE_ROW_57_Right_57
*30128 PHY_EDGE_ROW_58_Left_270
*30129 PHY_EDGE_ROW_58_Right_58
*30130 PHY_EDGE_ROW_59_Left_271
*30131 PHY_EDGE_ROW_59_Right_59
*30132 PHY_EDGE_ROW_5_Left_217
*30133 PHY_EDGE_ROW_5_Right_5
*30134 PHY_EDGE_ROW_60_Left_272
*30135 PHY_EDGE_ROW_60_Right_60
*30136 PHY_EDGE_ROW_61_Left_273
*30137 PHY_EDGE_ROW_61_Right_61
*30138 PHY_EDGE_ROW_62_Left_274
*30139 PHY_EDGE_ROW_62_Right_62
*30140 PHY_EDGE_ROW_63_Left_275
*30141 PHY_EDGE_ROW_63_Right_63
*30142 PHY_EDGE_ROW_64_Left_276
*30143 PHY_EDGE_ROW_64_Right_64
*30144 PHY_EDGE_ROW_65_Left_277
*30145 PHY_EDGE_ROW_65_Right_65
*30146 PHY_EDGE_ROW_66_Left_278
*30147 PHY_EDGE_ROW_66_Right_66
*30148 PHY_EDGE_ROW_67_Left_279
*30149 PHY_EDGE_ROW_67_Right_67
*30150 PHY_EDGE_ROW_68_Left_280
*30151 PHY_EDGE_ROW_68_Right_68
*30152 PHY_EDGE_ROW_69_Left_281
*30153 PHY_EDGE_ROW_69_Right_69
*30154 PHY_EDGE_ROW_6_Left_218
*30155 PHY_EDGE_ROW_6_Right_6
*30156 PHY_EDGE_ROW_70_Left_282
*30157 PHY_EDGE_ROW_70_Right_70
*30158 PHY_EDGE_ROW_71_Left_283
*30159 PHY_EDGE_ROW_71_Right_71
*30160 PHY_EDGE_ROW_72_Left_284
*30161 PHY_EDGE_ROW_72_Right_72
*30162 PHY_EDGE_ROW_73_Left_285
*30163 PHY_EDGE_ROW_73_Right_73
*30164 PHY_EDGE_ROW_74_Left_286
*30165 PHY_EDGE_ROW_74_Right_74
*30166 PHY_EDGE_ROW_75_Left_287
*30167 PHY_EDGE_ROW_75_Right_75
*30168 PHY_EDGE_ROW_76_Left_288
*30169 PHY_EDGE_ROW_76_Right_76
*30170 PHY_EDGE_ROW_77_Left_289
*30171 PHY_EDGE_ROW_77_Right_77
*30172 PHY_EDGE_ROW_78_Left_290
*30173 PHY_EDGE_ROW_78_Right_78
*30174 PHY_EDGE_ROW_79_Left_291
*30175 PHY_EDGE_ROW_79_Right_79
*30176 PHY_EDGE_ROW_7_Left_219
*30177 PHY_EDGE_ROW_7_Right_7
*30178 PHY_EDGE_ROW_80_Left_292
*30179 PHY_EDGE_ROW_80_Right_80
*30180 PHY_EDGE_ROW_81_Left_293
*30181 PHY_EDGE_ROW_81_Right_81
*30182 PHY_EDGE_ROW_82_Left_294
*30183 PHY_EDGE_ROW_82_Right_82
*30184 PHY_EDGE_ROW_83_Left_295
*30185 PHY_EDGE_ROW_83_Right_83
*30186 PHY_EDGE_ROW_84_Left_296
*30187 PHY_EDGE_ROW_84_Right_84
*30188 PHY_EDGE_ROW_85_Left_297
*30189 PHY_EDGE_ROW_85_Right_85
*30190 PHY_EDGE_ROW_86_Left_298
*30191 PHY_EDGE_ROW_86_Right_86
*30192 PHY_EDGE_ROW_87_Left_299
*30193 PHY_EDGE_ROW_87_Right_87
*30194 PHY_EDGE_ROW_88_Left_300
*30195 PHY_EDGE_ROW_88_Right_88
*30196 PHY_EDGE_ROW_89_Left_301
*30197 PHY_EDGE_ROW_89_Right_89
*30198 PHY_EDGE_ROW_8_Left_220
*30199 PHY_EDGE_ROW_8_Right_8
*30200 PHY_EDGE_ROW_90_Left_302
*30201 PHY_EDGE_ROW_90_Right_90
*30202 PHY_EDGE_ROW_91_Left_303
*30203 PHY_EDGE_ROW_91_Right_91
*30204 PHY_EDGE_ROW_92_Left_304
*30205 PHY_EDGE_ROW_92_Right_92
*30206 PHY_EDGE_ROW_93_Left_305
*30207 PHY_EDGE_ROW_93_Right_93
*30208 PHY_EDGE_ROW_94_Left_306
*30209 PHY_EDGE_ROW_94_Right_94
*30210 PHY_EDGE_ROW_95_Left_307
*30211 PHY_EDGE_ROW_95_Right_95
*30212 PHY_EDGE_ROW_96_Left_308
*30213 PHY_EDGE_ROW_96_Right_96
*30214 PHY_EDGE_ROW_97_Left_309
*30215 PHY_EDGE_ROW_97_Right_97
*30216 PHY_EDGE_ROW_98_Left_310
*30217 PHY_EDGE_ROW_98_Right_98
*30218 PHY_EDGE_ROW_99_Left_311
*30219 PHY_EDGE_ROW_99_Right_99
*30220 PHY_EDGE_ROW_9_Left_221
*30221 PHY_EDGE_ROW_9_Right_9
*30222 TAP_TAPCELL_ROW_0_424
*30223 TAP_TAPCELL_ROW_0_425
*30224 TAP_TAPCELL_ROW_0_426
*30225 TAP_TAPCELL_ROW_0_427
*30226 TAP_TAPCELL_ROW_0_428
*30227 TAP_TAPCELL_ROW_0_429
*30228 TAP_TAPCELL_ROW_0_430
*30229 TAP_TAPCELL_ROW_0_431
*30230 TAP_TAPCELL_ROW_0_432
*30231 TAP_TAPCELL_ROW_0_433
*30232 TAP_TAPCELL_ROW_0_434
*30233 TAP_TAPCELL_ROW_0_435
*30234 TAP_TAPCELL_ROW_0_436
*30235 TAP_TAPCELL_ROW_0_437
*30236 TAP_TAPCELL_ROW_0_438
*30237 TAP_TAPCELL_ROW_0_439
*30238 TAP_TAPCELL_ROW_0_440
*30239 TAP_TAPCELL_ROW_0_441
*30240 TAP_TAPCELL_ROW_0_442
*30241 TAP_TAPCELL_ROW_0_443
*30242 TAP_TAPCELL_ROW_0_444
*30243 TAP_TAPCELL_ROW_0_445
*30244 TAP_TAPCELL_ROW_0_446
*30245 TAP_TAPCELL_ROW_0_447
*30246 TAP_TAPCELL_ROW_0_448
*30247 TAP_TAPCELL_ROW_0_449
*30248 TAP_TAPCELL_ROW_0_450
*30249 TAP_TAPCELL_ROW_0_451
*30250 TAP_TAPCELL_ROW_0_452
*30251 TAP_TAPCELL_ROW_0_453
*30252 TAP_TAPCELL_ROW_0_454
*30253 TAP_TAPCELL_ROW_0_455
*30254 TAP_TAPCELL_ROW_0_456
*30255 TAP_TAPCELL_ROW_0_457
*30256 TAP_TAPCELL_ROW_0_458
*30257 TAP_TAPCELL_ROW_0_459
*30258 TAP_TAPCELL_ROW_0_460
*30259 TAP_TAPCELL_ROW_0_461
*30260 TAP_TAPCELL_ROW_0_462
*30261 TAP_TAPCELL_ROW_0_463
*30262 TAP_TAPCELL_ROW_0_464
*30263 TAP_TAPCELL_ROW_0_465
*30264 TAP_TAPCELL_ROW_0_466
*30265 TAP_TAPCELL_ROW_0_467
*30266 TAP_TAPCELL_ROW_0_468
*30267 TAP_TAPCELL_ROW_100_2696
*30268 TAP_TAPCELL_ROW_100_2697
*30269 TAP_TAPCELL_ROW_100_2698
*30270 TAP_TAPCELL_ROW_100_2699
*30271 TAP_TAPCELL_ROW_100_2700
*30272 TAP_TAPCELL_ROW_100_2701
*30273 TAP_TAPCELL_ROW_100_2702
*30274 TAP_TAPCELL_ROW_100_2703
*30275 TAP_TAPCELL_ROW_100_2704
*30276 TAP_TAPCELL_ROW_100_2705
*30277 TAP_TAPCELL_ROW_100_2706
*30278 TAP_TAPCELL_ROW_100_2707
*30279 TAP_TAPCELL_ROW_100_2708
*30280 TAP_TAPCELL_ROW_100_2709
*30281 TAP_TAPCELL_ROW_100_2710
*30282 TAP_TAPCELL_ROW_100_2711
*30283 TAP_TAPCELL_ROW_100_2712
*30284 TAP_TAPCELL_ROW_100_2713
*30285 TAP_TAPCELL_ROW_100_2714
*30286 TAP_TAPCELL_ROW_100_2715
*30287 TAP_TAPCELL_ROW_100_2716
*30288 TAP_TAPCELL_ROW_100_2717
*30289 TAP_TAPCELL_ROW_100_2718
*30290 TAP_TAPCELL_ROW_101_2719
*30291 TAP_TAPCELL_ROW_101_2720
*30292 TAP_TAPCELL_ROW_101_2721
*30293 TAP_TAPCELL_ROW_101_2722
*30294 TAP_TAPCELL_ROW_101_2723
*30295 TAP_TAPCELL_ROW_101_2724
*30296 TAP_TAPCELL_ROW_101_2725
*30297 TAP_TAPCELL_ROW_101_2726
*30298 TAP_TAPCELL_ROW_101_2727
*30299 TAP_TAPCELL_ROW_101_2728
*30300 TAP_TAPCELL_ROW_101_2729
*30301 TAP_TAPCELL_ROW_101_2730
*30302 TAP_TAPCELL_ROW_101_2731
*30303 TAP_TAPCELL_ROW_101_2732
*30304 TAP_TAPCELL_ROW_101_2733
*30305 TAP_TAPCELL_ROW_101_2734
*30306 TAP_TAPCELL_ROW_101_2735
*30307 TAP_TAPCELL_ROW_101_2736
*30308 TAP_TAPCELL_ROW_101_2737
*30309 TAP_TAPCELL_ROW_101_2738
*30310 TAP_TAPCELL_ROW_101_2739
*30311 TAP_TAPCELL_ROW_101_2740
*30312 TAP_TAPCELL_ROW_102_2741
*30313 TAP_TAPCELL_ROW_102_2742
*30314 TAP_TAPCELL_ROW_102_2743
*30315 TAP_TAPCELL_ROW_102_2744
*30316 TAP_TAPCELL_ROW_102_2745
*30317 TAP_TAPCELL_ROW_102_2746
*30318 TAP_TAPCELL_ROW_102_2747
*30319 TAP_TAPCELL_ROW_102_2748
*30320 TAP_TAPCELL_ROW_102_2749
*30321 TAP_TAPCELL_ROW_102_2750
*30322 TAP_TAPCELL_ROW_102_2751
*30323 TAP_TAPCELL_ROW_102_2752
*30324 TAP_TAPCELL_ROW_102_2753
*30325 TAP_TAPCELL_ROW_102_2754
*30326 TAP_TAPCELL_ROW_102_2755
*30327 TAP_TAPCELL_ROW_102_2756
*30328 TAP_TAPCELL_ROW_102_2757
*30329 TAP_TAPCELL_ROW_102_2758
*30330 TAP_TAPCELL_ROW_102_2759
*30331 TAP_TAPCELL_ROW_102_2760
*30332 TAP_TAPCELL_ROW_102_2761
*30333 TAP_TAPCELL_ROW_102_2762
*30334 TAP_TAPCELL_ROW_102_2763
*30335 TAP_TAPCELL_ROW_103_2764
*30336 TAP_TAPCELL_ROW_103_2765
*30337 TAP_TAPCELL_ROW_103_2766
*30338 TAP_TAPCELL_ROW_103_2767
*30339 TAP_TAPCELL_ROW_103_2768
*30340 TAP_TAPCELL_ROW_103_2769
*30341 TAP_TAPCELL_ROW_103_2770
*30342 TAP_TAPCELL_ROW_103_2771
*30343 TAP_TAPCELL_ROW_103_2772
*30344 TAP_TAPCELL_ROW_103_2773
*30345 TAP_TAPCELL_ROW_103_2774
*30346 TAP_TAPCELL_ROW_103_2775
*30347 TAP_TAPCELL_ROW_103_2776
*30348 TAP_TAPCELL_ROW_103_2777
*30349 TAP_TAPCELL_ROW_103_2778
*30350 TAP_TAPCELL_ROW_103_2779
*30351 TAP_TAPCELL_ROW_103_2780
*30352 TAP_TAPCELL_ROW_103_2781
*30353 TAP_TAPCELL_ROW_103_2782
*30354 TAP_TAPCELL_ROW_103_2783
*30355 TAP_TAPCELL_ROW_103_2784
*30356 TAP_TAPCELL_ROW_103_2785
*30357 TAP_TAPCELL_ROW_104_2786
*30358 TAP_TAPCELL_ROW_104_2787
*30359 TAP_TAPCELL_ROW_104_2788
*30360 TAP_TAPCELL_ROW_104_2789
*30361 TAP_TAPCELL_ROW_104_2790
*30362 TAP_TAPCELL_ROW_104_2791
*30363 TAP_TAPCELL_ROW_104_2792
*30364 TAP_TAPCELL_ROW_104_2793
*30365 TAP_TAPCELL_ROW_104_2794
*30366 TAP_TAPCELL_ROW_104_2795
*30367 TAP_TAPCELL_ROW_104_2796
*30368 TAP_TAPCELL_ROW_104_2797
*30369 TAP_TAPCELL_ROW_104_2798
*30370 TAP_TAPCELL_ROW_104_2799
*30371 TAP_TAPCELL_ROW_104_2800
*30372 TAP_TAPCELL_ROW_104_2801
*30373 TAP_TAPCELL_ROW_104_2802
*30374 TAP_TAPCELL_ROW_104_2803
*30375 TAP_TAPCELL_ROW_104_2804
*30376 TAP_TAPCELL_ROW_104_2805
*30377 TAP_TAPCELL_ROW_104_2806
*30378 TAP_TAPCELL_ROW_104_2807
*30379 TAP_TAPCELL_ROW_104_2808
*30380 TAP_TAPCELL_ROW_105_2809
*30381 TAP_TAPCELL_ROW_105_2810
*30382 TAP_TAPCELL_ROW_105_2811
*30383 TAP_TAPCELL_ROW_105_2812
*30384 TAP_TAPCELL_ROW_105_2813
*30385 TAP_TAPCELL_ROW_105_2814
*30386 TAP_TAPCELL_ROW_105_2815
*30387 TAP_TAPCELL_ROW_105_2816
*30388 TAP_TAPCELL_ROW_105_2817
*30389 TAP_TAPCELL_ROW_105_2818
*30390 TAP_TAPCELL_ROW_105_2819
*30391 TAP_TAPCELL_ROW_105_2820
*30392 TAP_TAPCELL_ROW_105_2821
*30393 TAP_TAPCELL_ROW_105_2822
*30394 TAP_TAPCELL_ROW_105_2823
*30395 TAP_TAPCELL_ROW_105_2824
*30396 TAP_TAPCELL_ROW_105_2825
*30397 TAP_TAPCELL_ROW_105_2826
*30398 TAP_TAPCELL_ROW_105_2827
*30399 TAP_TAPCELL_ROW_105_2828
*30400 TAP_TAPCELL_ROW_105_2829
*30401 TAP_TAPCELL_ROW_105_2830
*30402 TAP_TAPCELL_ROW_106_2831
*30403 TAP_TAPCELL_ROW_106_2832
*30404 TAP_TAPCELL_ROW_106_2833
*30405 TAP_TAPCELL_ROW_106_2834
*30406 TAP_TAPCELL_ROW_106_2835
*30407 TAP_TAPCELL_ROW_106_2836
*30408 TAP_TAPCELL_ROW_106_2837
*30409 TAP_TAPCELL_ROW_106_2838
*30410 TAP_TAPCELL_ROW_106_2839
*30411 TAP_TAPCELL_ROW_106_2840
*30412 TAP_TAPCELL_ROW_106_2841
*30413 TAP_TAPCELL_ROW_106_2842
*30414 TAP_TAPCELL_ROW_106_2843
*30415 TAP_TAPCELL_ROW_106_2844
*30416 TAP_TAPCELL_ROW_106_2845
*30417 TAP_TAPCELL_ROW_106_2846
*30418 TAP_TAPCELL_ROW_106_2847
*30419 TAP_TAPCELL_ROW_106_2848
*30420 TAP_TAPCELL_ROW_106_2849
*30421 TAP_TAPCELL_ROW_106_2850
*30422 TAP_TAPCELL_ROW_106_2851
*30423 TAP_TAPCELL_ROW_106_2852
*30424 TAP_TAPCELL_ROW_106_2853
*30425 TAP_TAPCELL_ROW_107_2854
*30426 TAP_TAPCELL_ROW_107_2855
*30427 TAP_TAPCELL_ROW_107_2856
*30428 TAP_TAPCELL_ROW_107_2857
*30429 TAP_TAPCELL_ROW_107_2858
*30430 TAP_TAPCELL_ROW_107_2859
*30431 TAP_TAPCELL_ROW_107_2860
*30432 TAP_TAPCELL_ROW_107_2861
*30433 TAP_TAPCELL_ROW_107_2862
*30434 TAP_TAPCELL_ROW_107_2863
*30435 TAP_TAPCELL_ROW_107_2864
*30436 TAP_TAPCELL_ROW_107_2865
*30437 TAP_TAPCELL_ROW_107_2866
*30438 TAP_TAPCELL_ROW_107_2867
*30439 TAP_TAPCELL_ROW_107_2868
*30440 TAP_TAPCELL_ROW_107_2869
*30441 TAP_TAPCELL_ROW_107_2870
*30442 TAP_TAPCELL_ROW_107_2871
*30443 TAP_TAPCELL_ROW_107_2872
*30444 TAP_TAPCELL_ROW_107_2873
*30445 TAP_TAPCELL_ROW_107_2874
*30446 TAP_TAPCELL_ROW_107_2875
*30447 TAP_TAPCELL_ROW_108_2876
*30448 TAP_TAPCELL_ROW_108_2877
*30449 TAP_TAPCELL_ROW_108_2878
*30450 TAP_TAPCELL_ROW_108_2879
*30451 TAP_TAPCELL_ROW_108_2880
*30452 TAP_TAPCELL_ROW_108_2881
*30453 TAP_TAPCELL_ROW_108_2882
*30454 TAP_TAPCELL_ROW_108_2883
*30455 TAP_TAPCELL_ROW_108_2884
*30456 TAP_TAPCELL_ROW_108_2885
*30457 TAP_TAPCELL_ROW_108_2886
*30458 TAP_TAPCELL_ROW_108_2887
*30459 TAP_TAPCELL_ROW_108_2888
*30460 TAP_TAPCELL_ROW_108_2889
*30461 TAP_TAPCELL_ROW_108_2890
*30462 TAP_TAPCELL_ROW_108_2891
*30463 TAP_TAPCELL_ROW_108_2892
*30464 TAP_TAPCELL_ROW_108_2893
*30465 TAP_TAPCELL_ROW_108_2894
*30466 TAP_TAPCELL_ROW_108_2895
*30467 TAP_TAPCELL_ROW_108_2896
*30468 TAP_TAPCELL_ROW_108_2897
*30469 TAP_TAPCELL_ROW_108_2898
*30470 TAP_TAPCELL_ROW_109_2899
*30471 TAP_TAPCELL_ROW_109_2900
*30472 TAP_TAPCELL_ROW_109_2901
*30473 TAP_TAPCELL_ROW_109_2902
*30474 TAP_TAPCELL_ROW_109_2903
*30475 TAP_TAPCELL_ROW_109_2904
*30476 TAP_TAPCELL_ROW_109_2905
*30477 TAP_TAPCELL_ROW_109_2906
*30478 TAP_TAPCELL_ROW_109_2907
*30479 TAP_TAPCELL_ROW_109_2908
*30480 TAP_TAPCELL_ROW_109_2909
*30481 TAP_TAPCELL_ROW_109_2910
*30482 TAP_TAPCELL_ROW_109_2911
*30483 TAP_TAPCELL_ROW_109_2912
*30484 TAP_TAPCELL_ROW_109_2913
*30485 TAP_TAPCELL_ROW_109_2914
*30486 TAP_TAPCELL_ROW_109_2915
*30487 TAP_TAPCELL_ROW_109_2916
*30488 TAP_TAPCELL_ROW_109_2917
*30489 TAP_TAPCELL_ROW_109_2918
*30490 TAP_TAPCELL_ROW_109_2919
*30491 TAP_TAPCELL_ROW_109_2920
*30492 TAP_TAPCELL_ROW_10_671
*30493 TAP_TAPCELL_ROW_10_672
*30494 TAP_TAPCELL_ROW_10_673
*30495 TAP_TAPCELL_ROW_10_674
*30496 TAP_TAPCELL_ROW_10_675
*30497 TAP_TAPCELL_ROW_10_676
*30498 TAP_TAPCELL_ROW_10_677
*30499 TAP_TAPCELL_ROW_10_678
*30500 TAP_TAPCELL_ROW_10_679
*30501 TAP_TAPCELL_ROW_10_680
*30502 TAP_TAPCELL_ROW_10_681
*30503 TAP_TAPCELL_ROW_10_682
*30504 TAP_TAPCELL_ROW_10_683
*30505 TAP_TAPCELL_ROW_10_684
*30506 TAP_TAPCELL_ROW_10_685
*30507 TAP_TAPCELL_ROW_10_686
*30508 TAP_TAPCELL_ROW_10_687
*30509 TAP_TAPCELL_ROW_10_688
*30510 TAP_TAPCELL_ROW_10_689
*30511 TAP_TAPCELL_ROW_10_690
*30512 TAP_TAPCELL_ROW_10_691
*30513 TAP_TAPCELL_ROW_10_692
*30514 TAP_TAPCELL_ROW_10_693
*30515 TAP_TAPCELL_ROW_110_2921
*30516 TAP_TAPCELL_ROW_110_2922
*30517 TAP_TAPCELL_ROW_110_2923
*30518 TAP_TAPCELL_ROW_110_2924
*30519 TAP_TAPCELL_ROW_110_2925
*30520 TAP_TAPCELL_ROW_110_2926
*30521 TAP_TAPCELL_ROW_110_2927
*30522 TAP_TAPCELL_ROW_110_2928
*30523 TAP_TAPCELL_ROW_110_2929
*30524 TAP_TAPCELL_ROW_110_2930
*30525 TAP_TAPCELL_ROW_110_2931
*30526 TAP_TAPCELL_ROW_110_2932
*30527 TAP_TAPCELL_ROW_110_2933
*30528 TAP_TAPCELL_ROW_110_2934
*30529 TAP_TAPCELL_ROW_110_2935
*30530 TAP_TAPCELL_ROW_110_2936
*30531 TAP_TAPCELL_ROW_110_2937
*30532 TAP_TAPCELL_ROW_110_2938
*30533 TAP_TAPCELL_ROW_110_2939
*30534 TAP_TAPCELL_ROW_110_2940
*30535 TAP_TAPCELL_ROW_110_2941
*30536 TAP_TAPCELL_ROW_110_2942
*30537 TAP_TAPCELL_ROW_110_2943
*30538 TAP_TAPCELL_ROW_111_2944
*30539 TAP_TAPCELL_ROW_111_2945
*30540 TAP_TAPCELL_ROW_111_2946
*30541 TAP_TAPCELL_ROW_111_2947
*30542 TAP_TAPCELL_ROW_111_2948
*30543 TAP_TAPCELL_ROW_111_2949
*30544 TAP_TAPCELL_ROW_111_2950
*30545 TAP_TAPCELL_ROW_111_2951
*30546 TAP_TAPCELL_ROW_111_2952
*30547 TAP_TAPCELL_ROW_111_2953
*30548 TAP_TAPCELL_ROW_111_2954
*30549 TAP_TAPCELL_ROW_111_2955
*30550 TAP_TAPCELL_ROW_111_2956
*30551 TAP_TAPCELL_ROW_111_2957
*30552 TAP_TAPCELL_ROW_111_2958
*30553 TAP_TAPCELL_ROW_111_2959
*30554 TAP_TAPCELL_ROW_111_2960
*30555 TAP_TAPCELL_ROW_111_2961
*30556 TAP_TAPCELL_ROW_111_2962
*30557 TAP_TAPCELL_ROW_111_2963
*30558 TAP_TAPCELL_ROW_111_2964
*30559 TAP_TAPCELL_ROW_111_2965
*30560 TAP_TAPCELL_ROW_112_2966
*30561 TAP_TAPCELL_ROW_112_2967
*30562 TAP_TAPCELL_ROW_112_2968
*30563 TAP_TAPCELL_ROW_112_2969
*30564 TAP_TAPCELL_ROW_112_2970
*30565 TAP_TAPCELL_ROW_112_2971
*30566 TAP_TAPCELL_ROW_112_2972
*30567 TAP_TAPCELL_ROW_112_2973
*30568 TAP_TAPCELL_ROW_112_2974
*30569 TAP_TAPCELL_ROW_112_2975
*30570 TAP_TAPCELL_ROW_112_2976
*30571 TAP_TAPCELL_ROW_112_2977
*30572 TAP_TAPCELL_ROW_112_2978
*30573 TAP_TAPCELL_ROW_112_2979
*30574 TAP_TAPCELL_ROW_112_2980
*30575 TAP_TAPCELL_ROW_112_2981
*30576 TAP_TAPCELL_ROW_112_2982
*30577 TAP_TAPCELL_ROW_112_2983
*30578 TAP_TAPCELL_ROW_112_2984
*30579 TAP_TAPCELL_ROW_112_2985
*30580 TAP_TAPCELL_ROW_112_2986
*30581 TAP_TAPCELL_ROW_112_2987
*30582 TAP_TAPCELL_ROW_112_2988
*30583 TAP_TAPCELL_ROW_113_2989
*30584 TAP_TAPCELL_ROW_113_2990
*30585 TAP_TAPCELL_ROW_113_2991
*30586 TAP_TAPCELL_ROW_113_2992
*30587 TAP_TAPCELL_ROW_113_2993
*30588 TAP_TAPCELL_ROW_113_2994
*30589 TAP_TAPCELL_ROW_113_2995
*30590 TAP_TAPCELL_ROW_113_2996
*30591 TAP_TAPCELL_ROW_113_2997
*30592 TAP_TAPCELL_ROW_113_2998
*30593 TAP_TAPCELL_ROW_113_2999
*30594 TAP_TAPCELL_ROW_113_3000
*30595 TAP_TAPCELL_ROW_113_3001
*30596 TAP_TAPCELL_ROW_113_3002
*30597 TAP_TAPCELL_ROW_113_3003
*30598 TAP_TAPCELL_ROW_113_3004
*30599 TAP_TAPCELL_ROW_113_3005
*30600 TAP_TAPCELL_ROW_113_3006
*30601 TAP_TAPCELL_ROW_113_3007
*30602 TAP_TAPCELL_ROW_113_3008
*30603 TAP_TAPCELL_ROW_113_3009
*30604 TAP_TAPCELL_ROW_113_3010
*30605 TAP_TAPCELL_ROW_114_3011
*30606 TAP_TAPCELL_ROW_114_3012
*30607 TAP_TAPCELL_ROW_114_3013
*30608 TAP_TAPCELL_ROW_114_3014
*30609 TAP_TAPCELL_ROW_114_3015
*30610 TAP_TAPCELL_ROW_114_3016
*30611 TAP_TAPCELL_ROW_114_3017
*30612 TAP_TAPCELL_ROW_114_3018
*30613 TAP_TAPCELL_ROW_114_3019
*30614 TAP_TAPCELL_ROW_114_3020
*30615 TAP_TAPCELL_ROW_114_3021
*30616 TAP_TAPCELL_ROW_114_3022
*30617 TAP_TAPCELL_ROW_114_3023
*30618 TAP_TAPCELL_ROW_114_3024
*30619 TAP_TAPCELL_ROW_114_3025
*30620 TAP_TAPCELL_ROW_114_3026
*30621 TAP_TAPCELL_ROW_114_3027
*30622 TAP_TAPCELL_ROW_114_3028
*30623 TAP_TAPCELL_ROW_114_3029
*30624 TAP_TAPCELL_ROW_114_3030
*30625 TAP_TAPCELL_ROW_114_3031
*30626 TAP_TAPCELL_ROW_114_3032
*30627 TAP_TAPCELL_ROW_114_3033
*30628 TAP_TAPCELL_ROW_115_3034
*30629 TAP_TAPCELL_ROW_115_3035
*30630 TAP_TAPCELL_ROW_115_3036
*30631 TAP_TAPCELL_ROW_115_3037
*30632 TAP_TAPCELL_ROW_115_3038
*30633 TAP_TAPCELL_ROW_115_3039
*30634 TAP_TAPCELL_ROW_115_3040
*30635 TAP_TAPCELL_ROW_115_3041
*30636 TAP_TAPCELL_ROW_115_3042
*30637 TAP_TAPCELL_ROW_115_3043
*30638 TAP_TAPCELL_ROW_115_3044
*30639 TAP_TAPCELL_ROW_115_3045
*30640 TAP_TAPCELL_ROW_115_3046
*30641 TAP_TAPCELL_ROW_115_3047
*30642 TAP_TAPCELL_ROW_115_3048
*30643 TAP_TAPCELL_ROW_115_3049
*30644 TAP_TAPCELL_ROW_115_3050
*30645 TAP_TAPCELL_ROW_115_3051
*30646 TAP_TAPCELL_ROW_115_3052
*30647 TAP_TAPCELL_ROW_115_3053
*30648 TAP_TAPCELL_ROW_115_3054
*30649 TAP_TAPCELL_ROW_115_3055
*30650 TAP_TAPCELL_ROW_116_3056
*30651 TAP_TAPCELL_ROW_116_3057
*30652 TAP_TAPCELL_ROW_116_3058
*30653 TAP_TAPCELL_ROW_116_3059
*30654 TAP_TAPCELL_ROW_116_3060
*30655 TAP_TAPCELL_ROW_116_3061
*30656 TAP_TAPCELL_ROW_116_3062
*30657 TAP_TAPCELL_ROW_116_3063
*30658 TAP_TAPCELL_ROW_116_3064
*30659 TAP_TAPCELL_ROW_116_3065
*30660 TAP_TAPCELL_ROW_116_3066
*30661 TAP_TAPCELL_ROW_116_3067
*30662 TAP_TAPCELL_ROW_116_3068
*30663 TAP_TAPCELL_ROW_116_3069
*30664 TAP_TAPCELL_ROW_116_3070
*30665 TAP_TAPCELL_ROW_116_3071
*30666 TAP_TAPCELL_ROW_116_3072
*30667 TAP_TAPCELL_ROW_116_3073
*30668 TAP_TAPCELL_ROW_116_3074
*30669 TAP_TAPCELL_ROW_116_3075
*30670 TAP_TAPCELL_ROW_116_3076
*30671 TAP_TAPCELL_ROW_116_3077
*30672 TAP_TAPCELL_ROW_116_3078
*30673 TAP_TAPCELL_ROW_117_3079
*30674 TAP_TAPCELL_ROW_117_3080
*30675 TAP_TAPCELL_ROW_117_3081
*30676 TAP_TAPCELL_ROW_117_3082
*30677 TAP_TAPCELL_ROW_117_3083
*30678 TAP_TAPCELL_ROW_117_3084
*30679 TAP_TAPCELL_ROW_117_3085
*30680 TAP_TAPCELL_ROW_117_3086
*30681 TAP_TAPCELL_ROW_117_3087
*30682 TAP_TAPCELL_ROW_117_3088
*30683 TAP_TAPCELL_ROW_117_3089
*30684 TAP_TAPCELL_ROW_117_3090
*30685 TAP_TAPCELL_ROW_117_3091
*30686 TAP_TAPCELL_ROW_117_3092
*30687 TAP_TAPCELL_ROW_117_3093
*30688 TAP_TAPCELL_ROW_117_3094
*30689 TAP_TAPCELL_ROW_117_3095
*30690 TAP_TAPCELL_ROW_117_3096
*30691 TAP_TAPCELL_ROW_117_3097
*30692 TAP_TAPCELL_ROW_117_3098
*30693 TAP_TAPCELL_ROW_117_3099
*30694 TAP_TAPCELL_ROW_117_3100
*30695 TAP_TAPCELL_ROW_118_3101
*30696 TAP_TAPCELL_ROW_118_3102
*30697 TAP_TAPCELL_ROW_118_3103
*30698 TAP_TAPCELL_ROW_118_3104
*30699 TAP_TAPCELL_ROW_118_3105
*30700 TAP_TAPCELL_ROW_118_3106
*30701 TAP_TAPCELL_ROW_118_3107
*30702 TAP_TAPCELL_ROW_118_3108
*30703 TAP_TAPCELL_ROW_118_3109
*30704 TAP_TAPCELL_ROW_118_3110
*30705 TAP_TAPCELL_ROW_118_3111
*30706 TAP_TAPCELL_ROW_118_3112
*30707 TAP_TAPCELL_ROW_118_3113
*30708 TAP_TAPCELL_ROW_118_3114
*30709 TAP_TAPCELL_ROW_118_3115
*30710 TAP_TAPCELL_ROW_118_3116
*30711 TAP_TAPCELL_ROW_118_3117
*30712 TAP_TAPCELL_ROW_118_3118
*30713 TAP_TAPCELL_ROW_118_3119
*30714 TAP_TAPCELL_ROW_118_3120
*30715 TAP_TAPCELL_ROW_118_3121
*30716 TAP_TAPCELL_ROW_118_3122
*30717 TAP_TAPCELL_ROW_118_3123
*30718 TAP_TAPCELL_ROW_119_3124
*30719 TAP_TAPCELL_ROW_119_3125
*30720 TAP_TAPCELL_ROW_119_3126
*30721 TAP_TAPCELL_ROW_119_3127
*30722 TAP_TAPCELL_ROW_119_3128
*30723 TAP_TAPCELL_ROW_119_3129
*30724 TAP_TAPCELL_ROW_119_3130
*30725 TAP_TAPCELL_ROW_119_3131
*30726 TAP_TAPCELL_ROW_119_3132
*30727 TAP_TAPCELL_ROW_119_3133
*30728 TAP_TAPCELL_ROW_119_3134
*30729 TAP_TAPCELL_ROW_119_3135
*30730 TAP_TAPCELL_ROW_119_3136
*30731 TAP_TAPCELL_ROW_119_3137
*30732 TAP_TAPCELL_ROW_119_3138
*30733 TAP_TAPCELL_ROW_119_3139
*30734 TAP_TAPCELL_ROW_119_3140
*30735 TAP_TAPCELL_ROW_119_3141
*30736 TAP_TAPCELL_ROW_119_3142
*30737 TAP_TAPCELL_ROW_119_3143
*30738 TAP_TAPCELL_ROW_119_3144
*30739 TAP_TAPCELL_ROW_119_3145
*30740 TAP_TAPCELL_ROW_11_694
*30741 TAP_TAPCELL_ROW_11_695
*30742 TAP_TAPCELL_ROW_11_696
*30743 TAP_TAPCELL_ROW_11_697
*30744 TAP_TAPCELL_ROW_11_698
*30745 TAP_TAPCELL_ROW_11_699
*30746 TAP_TAPCELL_ROW_11_700
*30747 TAP_TAPCELL_ROW_11_701
*30748 TAP_TAPCELL_ROW_11_702
*30749 TAP_TAPCELL_ROW_11_703
*30750 TAP_TAPCELL_ROW_11_704
*30751 TAP_TAPCELL_ROW_11_705
*30752 TAP_TAPCELL_ROW_11_706
*30753 TAP_TAPCELL_ROW_11_707
*30754 TAP_TAPCELL_ROW_11_708
*30755 TAP_TAPCELL_ROW_11_709
*30756 TAP_TAPCELL_ROW_11_710
*30757 TAP_TAPCELL_ROW_11_711
*30758 TAP_TAPCELL_ROW_11_712
*30759 TAP_TAPCELL_ROW_11_713
*30760 TAP_TAPCELL_ROW_11_714
*30761 TAP_TAPCELL_ROW_11_715
*30762 TAP_TAPCELL_ROW_120_3146
*30763 TAP_TAPCELL_ROW_120_3147
*30764 TAP_TAPCELL_ROW_120_3148
*30765 TAP_TAPCELL_ROW_120_3149
*30766 TAP_TAPCELL_ROW_120_3150
*30767 TAP_TAPCELL_ROW_120_3151
*30768 TAP_TAPCELL_ROW_120_3152
*30769 TAP_TAPCELL_ROW_120_3153
*30770 TAP_TAPCELL_ROW_120_3154
*30771 TAP_TAPCELL_ROW_120_3155
*30772 TAP_TAPCELL_ROW_120_3156
*30773 TAP_TAPCELL_ROW_120_3157
*30774 TAP_TAPCELL_ROW_120_3158
*30775 TAP_TAPCELL_ROW_120_3159
*30776 TAP_TAPCELL_ROW_120_3160
*30777 TAP_TAPCELL_ROW_120_3161
*30778 TAP_TAPCELL_ROW_120_3162
*30779 TAP_TAPCELL_ROW_120_3163
*30780 TAP_TAPCELL_ROW_120_3164
*30781 TAP_TAPCELL_ROW_120_3165
*30782 TAP_TAPCELL_ROW_120_3166
*30783 TAP_TAPCELL_ROW_120_3167
*30784 TAP_TAPCELL_ROW_120_3168
*30785 TAP_TAPCELL_ROW_121_3169
*30786 TAP_TAPCELL_ROW_121_3170
*30787 TAP_TAPCELL_ROW_121_3171
*30788 TAP_TAPCELL_ROW_121_3172
*30789 TAP_TAPCELL_ROW_121_3173
*30790 TAP_TAPCELL_ROW_121_3174
*30791 TAP_TAPCELL_ROW_121_3175
*30792 TAP_TAPCELL_ROW_121_3176
*30793 TAP_TAPCELL_ROW_121_3177
*30794 TAP_TAPCELL_ROW_121_3178
*30795 TAP_TAPCELL_ROW_121_3179
*30796 TAP_TAPCELL_ROW_121_3180
*30797 TAP_TAPCELL_ROW_121_3181
*30798 TAP_TAPCELL_ROW_121_3182
*30799 TAP_TAPCELL_ROW_121_3183
*30800 TAP_TAPCELL_ROW_121_3184
*30801 TAP_TAPCELL_ROW_121_3185
*30802 TAP_TAPCELL_ROW_121_3186
*30803 TAP_TAPCELL_ROW_121_3187
*30804 TAP_TAPCELL_ROW_121_3188
*30805 TAP_TAPCELL_ROW_121_3189
*30806 TAP_TAPCELL_ROW_121_3190
*30807 TAP_TAPCELL_ROW_122_3191
*30808 TAP_TAPCELL_ROW_122_3192
*30809 TAP_TAPCELL_ROW_122_3193
*30810 TAP_TAPCELL_ROW_122_3194
*30811 TAP_TAPCELL_ROW_122_3195
*30812 TAP_TAPCELL_ROW_122_3196
*30813 TAP_TAPCELL_ROW_122_3197
*30814 TAP_TAPCELL_ROW_122_3198
*30815 TAP_TAPCELL_ROW_122_3199
*30816 TAP_TAPCELL_ROW_122_3200
*30817 TAP_TAPCELL_ROW_122_3201
*30818 TAP_TAPCELL_ROW_122_3202
*30819 TAP_TAPCELL_ROW_122_3203
*30820 TAP_TAPCELL_ROW_122_3204
*30821 TAP_TAPCELL_ROW_122_3205
*30822 TAP_TAPCELL_ROW_122_3206
*30823 TAP_TAPCELL_ROW_122_3207
*30824 TAP_TAPCELL_ROW_122_3208
*30825 TAP_TAPCELL_ROW_122_3209
*30826 TAP_TAPCELL_ROW_122_3210
*30827 TAP_TAPCELL_ROW_122_3211
*30828 TAP_TAPCELL_ROW_122_3212
*30829 TAP_TAPCELL_ROW_122_3213
*30830 TAP_TAPCELL_ROW_123_3214
*30831 TAP_TAPCELL_ROW_123_3215
*30832 TAP_TAPCELL_ROW_123_3216
*30833 TAP_TAPCELL_ROW_123_3217
*30834 TAP_TAPCELL_ROW_123_3218
*30835 TAP_TAPCELL_ROW_123_3219
*30836 TAP_TAPCELL_ROW_123_3220
*30837 TAP_TAPCELL_ROW_123_3221
*30838 TAP_TAPCELL_ROW_123_3222
*30839 TAP_TAPCELL_ROW_123_3223
*30840 TAP_TAPCELL_ROW_123_3224
*30841 TAP_TAPCELL_ROW_123_3225
*30842 TAP_TAPCELL_ROW_123_3226
*30843 TAP_TAPCELL_ROW_123_3227
*30844 TAP_TAPCELL_ROW_123_3228
*30845 TAP_TAPCELL_ROW_123_3229
*30846 TAP_TAPCELL_ROW_123_3230
*30847 TAP_TAPCELL_ROW_123_3231
*30848 TAP_TAPCELL_ROW_123_3232
*30849 TAP_TAPCELL_ROW_123_3233
*30850 TAP_TAPCELL_ROW_123_3234
*30851 TAP_TAPCELL_ROW_123_3235
*30852 TAP_TAPCELL_ROW_124_3236
*30853 TAP_TAPCELL_ROW_124_3237
*30854 TAP_TAPCELL_ROW_124_3238
*30855 TAP_TAPCELL_ROW_124_3239
*30856 TAP_TAPCELL_ROW_124_3240
*30857 TAP_TAPCELL_ROW_124_3241
*30858 TAP_TAPCELL_ROW_124_3242
*30859 TAP_TAPCELL_ROW_124_3243
*30860 TAP_TAPCELL_ROW_124_3244
*30861 TAP_TAPCELL_ROW_124_3245
*30862 TAP_TAPCELL_ROW_124_3246
*30863 TAP_TAPCELL_ROW_124_3247
*30864 TAP_TAPCELL_ROW_124_3248
*30865 TAP_TAPCELL_ROW_124_3249
*30866 TAP_TAPCELL_ROW_124_3250
*30867 TAP_TAPCELL_ROW_124_3251
*30868 TAP_TAPCELL_ROW_124_3252
*30869 TAP_TAPCELL_ROW_124_3253
*30870 TAP_TAPCELL_ROW_124_3254
*30871 TAP_TAPCELL_ROW_124_3255
*30872 TAP_TAPCELL_ROW_124_3256
*30873 TAP_TAPCELL_ROW_124_3257
*30874 TAP_TAPCELL_ROW_124_3258
*30875 TAP_TAPCELL_ROW_125_3259
*30876 TAP_TAPCELL_ROW_125_3260
*30877 TAP_TAPCELL_ROW_125_3261
*30878 TAP_TAPCELL_ROW_125_3262
*30879 TAP_TAPCELL_ROW_125_3263
*30880 TAP_TAPCELL_ROW_125_3264
*30881 TAP_TAPCELL_ROW_125_3265
*30882 TAP_TAPCELL_ROW_125_3266
*30883 TAP_TAPCELL_ROW_125_3267
*30884 TAP_TAPCELL_ROW_125_3268
*30885 TAP_TAPCELL_ROW_125_3269
*30886 TAP_TAPCELL_ROW_125_3270
*30887 TAP_TAPCELL_ROW_125_3271
*30888 TAP_TAPCELL_ROW_125_3272
*30889 TAP_TAPCELL_ROW_125_3273
*30890 TAP_TAPCELL_ROW_125_3274
*30891 TAP_TAPCELL_ROW_125_3275
*30892 TAP_TAPCELL_ROW_125_3276
*30893 TAP_TAPCELL_ROW_125_3277
*30894 TAP_TAPCELL_ROW_125_3278
*30895 TAP_TAPCELL_ROW_125_3279
*30896 TAP_TAPCELL_ROW_125_3280
*30897 TAP_TAPCELL_ROW_126_3281
*30898 TAP_TAPCELL_ROW_126_3282
*30899 TAP_TAPCELL_ROW_126_3283
*30900 TAP_TAPCELL_ROW_126_3284
*30901 TAP_TAPCELL_ROW_126_3285
*30902 TAP_TAPCELL_ROW_126_3286
*30903 TAP_TAPCELL_ROW_126_3287
*30904 TAP_TAPCELL_ROW_126_3288
*30905 TAP_TAPCELL_ROW_126_3289
*30906 TAP_TAPCELL_ROW_126_3290
*30907 TAP_TAPCELL_ROW_126_3291
*30908 TAP_TAPCELL_ROW_126_3292
*30909 TAP_TAPCELL_ROW_126_3293
*30910 TAP_TAPCELL_ROW_126_3294
*30911 TAP_TAPCELL_ROW_126_3295
*30912 TAP_TAPCELL_ROW_126_3296
*30913 TAP_TAPCELL_ROW_126_3297
*30914 TAP_TAPCELL_ROW_126_3298
*30915 TAP_TAPCELL_ROW_126_3299
*30916 TAP_TAPCELL_ROW_126_3300
*30917 TAP_TAPCELL_ROW_126_3301
*30918 TAP_TAPCELL_ROW_126_3302
*30919 TAP_TAPCELL_ROW_126_3303
*30920 TAP_TAPCELL_ROW_127_3304
*30921 TAP_TAPCELL_ROW_127_3305
*30922 TAP_TAPCELL_ROW_127_3306
*30923 TAP_TAPCELL_ROW_127_3307
*30924 TAP_TAPCELL_ROW_127_3308
*30925 TAP_TAPCELL_ROW_127_3309
*30926 TAP_TAPCELL_ROW_127_3310
*30927 TAP_TAPCELL_ROW_127_3311
*30928 TAP_TAPCELL_ROW_127_3312
*30929 TAP_TAPCELL_ROW_127_3313
*30930 TAP_TAPCELL_ROW_127_3314
*30931 TAP_TAPCELL_ROW_127_3315
*30932 TAP_TAPCELL_ROW_127_3316
*30933 TAP_TAPCELL_ROW_127_3317
*30934 TAP_TAPCELL_ROW_127_3318
*30935 TAP_TAPCELL_ROW_127_3319
*30936 TAP_TAPCELL_ROW_127_3320
*30937 TAP_TAPCELL_ROW_127_3321
*30938 TAP_TAPCELL_ROW_127_3322
*30939 TAP_TAPCELL_ROW_127_3323
*30940 TAP_TAPCELL_ROW_127_3324
*30941 TAP_TAPCELL_ROW_127_3325
*30942 TAP_TAPCELL_ROW_128_3326
*30943 TAP_TAPCELL_ROW_128_3327
*30944 TAP_TAPCELL_ROW_128_3328
*30945 TAP_TAPCELL_ROW_128_3329
*30946 TAP_TAPCELL_ROW_128_3330
*30947 TAP_TAPCELL_ROW_128_3331
*30948 TAP_TAPCELL_ROW_128_3332
*30949 TAP_TAPCELL_ROW_128_3333
*30950 TAP_TAPCELL_ROW_128_3334
*30951 TAP_TAPCELL_ROW_128_3335
*30952 TAP_TAPCELL_ROW_128_3336
*30953 TAP_TAPCELL_ROW_128_3337
*30954 TAP_TAPCELL_ROW_128_3338
*30955 TAP_TAPCELL_ROW_128_3339
*30956 TAP_TAPCELL_ROW_128_3340
*30957 TAP_TAPCELL_ROW_128_3341
*30958 TAP_TAPCELL_ROW_128_3342
*30959 TAP_TAPCELL_ROW_128_3343
*30960 TAP_TAPCELL_ROW_128_3344
*30961 TAP_TAPCELL_ROW_128_3345
*30962 TAP_TAPCELL_ROW_128_3346
*30963 TAP_TAPCELL_ROW_128_3347
*30964 TAP_TAPCELL_ROW_128_3348
*30965 TAP_TAPCELL_ROW_129_3349
*30966 TAP_TAPCELL_ROW_129_3350
*30967 TAP_TAPCELL_ROW_129_3351
*30968 TAP_TAPCELL_ROW_129_3352
*30969 TAP_TAPCELL_ROW_129_3353
*30970 TAP_TAPCELL_ROW_129_3354
*30971 TAP_TAPCELL_ROW_129_3355
*30972 TAP_TAPCELL_ROW_129_3356
*30973 TAP_TAPCELL_ROW_129_3357
*30974 TAP_TAPCELL_ROW_129_3358
*30975 TAP_TAPCELL_ROW_129_3359
*30976 TAP_TAPCELL_ROW_129_3360
*30977 TAP_TAPCELL_ROW_129_3361
*30978 TAP_TAPCELL_ROW_129_3362
*30979 TAP_TAPCELL_ROW_129_3363
*30980 TAP_TAPCELL_ROW_129_3364
*30981 TAP_TAPCELL_ROW_129_3365
*30982 TAP_TAPCELL_ROW_129_3366
*30983 TAP_TAPCELL_ROW_129_3367
*30984 TAP_TAPCELL_ROW_129_3368
*30985 TAP_TAPCELL_ROW_129_3369
*30986 TAP_TAPCELL_ROW_129_3370
*30987 TAP_TAPCELL_ROW_12_716
*30988 TAP_TAPCELL_ROW_12_717
*30989 TAP_TAPCELL_ROW_12_718
*30990 TAP_TAPCELL_ROW_12_719
*30991 TAP_TAPCELL_ROW_12_720
*30992 TAP_TAPCELL_ROW_12_721
*30993 TAP_TAPCELL_ROW_12_722
*30994 TAP_TAPCELL_ROW_12_723
*30995 TAP_TAPCELL_ROW_12_724
*30996 TAP_TAPCELL_ROW_12_725
*30997 TAP_TAPCELL_ROW_12_726
*30998 TAP_TAPCELL_ROW_12_727
*30999 TAP_TAPCELL_ROW_12_728
*31000 TAP_TAPCELL_ROW_12_729
*31001 TAP_TAPCELL_ROW_12_730
*31002 TAP_TAPCELL_ROW_12_731
*31003 TAP_TAPCELL_ROW_12_732
*31004 TAP_TAPCELL_ROW_12_733
*31005 TAP_TAPCELL_ROW_12_734
*31006 TAP_TAPCELL_ROW_12_735
*31007 TAP_TAPCELL_ROW_12_736
*31008 TAP_TAPCELL_ROW_12_737
*31009 TAP_TAPCELL_ROW_12_738
*31010 TAP_TAPCELL_ROW_130_3371
*31011 TAP_TAPCELL_ROW_130_3372
*31012 TAP_TAPCELL_ROW_130_3373
*31013 TAP_TAPCELL_ROW_130_3374
*31014 TAP_TAPCELL_ROW_130_3375
*31015 TAP_TAPCELL_ROW_130_3376
*31016 TAP_TAPCELL_ROW_130_3377
*31017 TAP_TAPCELL_ROW_130_3378
*31018 TAP_TAPCELL_ROW_130_3379
*31019 TAP_TAPCELL_ROW_130_3380
*31020 TAP_TAPCELL_ROW_130_3381
*31021 TAP_TAPCELL_ROW_130_3382
*31022 TAP_TAPCELL_ROW_130_3383
*31023 TAP_TAPCELL_ROW_130_3384
*31024 TAP_TAPCELL_ROW_130_3385
*31025 TAP_TAPCELL_ROW_130_3386
*31026 TAP_TAPCELL_ROW_130_3387
*31027 TAP_TAPCELL_ROW_130_3388
*31028 TAP_TAPCELL_ROW_130_3389
*31029 TAP_TAPCELL_ROW_130_3390
*31030 TAP_TAPCELL_ROW_130_3391
*31031 TAP_TAPCELL_ROW_130_3392
*31032 TAP_TAPCELL_ROW_130_3393
*31033 TAP_TAPCELL_ROW_131_3394
*31034 TAP_TAPCELL_ROW_131_3395
*31035 TAP_TAPCELL_ROW_131_3396
*31036 TAP_TAPCELL_ROW_131_3397
*31037 TAP_TAPCELL_ROW_131_3398
*31038 TAP_TAPCELL_ROW_131_3399
*31039 TAP_TAPCELL_ROW_131_3400
*31040 TAP_TAPCELL_ROW_131_3401
*31041 TAP_TAPCELL_ROW_131_3402
*31042 TAP_TAPCELL_ROW_131_3403
*31043 TAP_TAPCELL_ROW_131_3404
*31044 TAP_TAPCELL_ROW_131_3405
*31045 TAP_TAPCELL_ROW_131_3406
*31046 TAP_TAPCELL_ROW_131_3407
*31047 TAP_TAPCELL_ROW_131_3408
*31048 TAP_TAPCELL_ROW_131_3409
*31049 TAP_TAPCELL_ROW_131_3410
*31050 TAP_TAPCELL_ROW_131_3411
*31051 TAP_TAPCELL_ROW_131_3412
*31052 TAP_TAPCELL_ROW_131_3413
*31053 TAP_TAPCELL_ROW_131_3414
*31054 TAP_TAPCELL_ROW_131_3415
*31055 TAP_TAPCELL_ROW_132_3416
*31056 TAP_TAPCELL_ROW_132_3417
*31057 TAP_TAPCELL_ROW_132_3418
*31058 TAP_TAPCELL_ROW_132_3419
*31059 TAP_TAPCELL_ROW_132_3420
*31060 TAP_TAPCELL_ROW_132_3421
*31061 TAP_TAPCELL_ROW_132_3422
*31062 TAP_TAPCELL_ROW_132_3423
*31063 TAP_TAPCELL_ROW_132_3424
*31064 TAP_TAPCELL_ROW_132_3425
*31065 TAP_TAPCELL_ROW_132_3426
*31066 TAP_TAPCELL_ROW_132_3427
*31067 TAP_TAPCELL_ROW_132_3428
*31068 TAP_TAPCELL_ROW_132_3429
*31069 TAP_TAPCELL_ROW_132_3430
*31070 TAP_TAPCELL_ROW_132_3431
*31071 TAP_TAPCELL_ROW_132_3432
*31072 TAP_TAPCELL_ROW_132_3433
*31073 TAP_TAPCELL_ROW_132_3434
*31074 TAP_TAPCELL_ROW_132_3435
*31075 TAP_TAPCELL_ROW_132_3436
*31076 TAP_TAPCELL_ROW_132_3437
*31077 TAP_TAPCELL_ROW_132_3438
*31078 TAP_TAPCELL_ROW_133_3439
*31079 TAP_TAPCELL_ROW_133_3440
*31080 TAP_TAPCELL_ROW_133_3441
*31081 TAP_TAPCELL_ROW_133_3442
*31082 TAP_TAPCELL_ROW_133_3443
*31083 TAP_TAPCELL_ROW_133_3444
*31084 TAP_TAPCELL_ROW_133_3445
*31085 TAP_TAPCELL_ROW_133_3446
*31086 TAP_TAPCELL_ROW_133_3447
*31087 TAP_TAPCELL_ROW_133_3448
*31088 TAP_TAPCELL_ROW_133_3449
*31089 TAP_TAPCELL_ROW_133_3450
*31090 TAP_TAPCELL_ROW_133_3451
*31091 TAP_TAPCELL_ROW_133_3452
*31092 TAP_TAPCELL_ROW_133_3453
*31093 TAP_TAPCELL_ROW_133_3454
*31094 TAP_TAPCELL_ROW_133_3455
*31095 TAP_TAPCELL_ROW_133_3456
*31096 TAP_TAPCELL_ROW_133_3457
*31097 TAP_TAPCELL_ROW_133_3458
*31098 TAP_TAPCELL_ROW_133_3459
*31099 TAP_TAPCELL_ROW_133_3460
*31100 TAP_TAPCELL_ROW_134_3461
*31101 TAP_TAPCELL_ROW_134_3462
*31102 TAP_TAPCELL_ROW_134_3463
*31103 TAP_TAPCELL_ROW_134_3464
*31104 TAP_TAPCELL_ROW_134_3465
*31105 TAP_TAPCELL_ROW_134_3466
*31106 TAP_TAPCELL_ROW_134_3467
*31107 TAP_TAPCELL_ROW_134_3468
*31108 TAP_TAPCELL_ROW_134_3469
*31109 TAP_TAPCELL_ROW_134_3470
*31110 TAP_TAPCELL_ROW_134_3471
*31111 TAP_TAPCELL_ROW_134_3472
*31112 TAP_TAPCELL_ROW_134_3473
*31113 TAP_TAPCELL_ROW_134_3474
*31114 TAP_TAPCELL_ROW_134_3475
*31115 TAP_TAPCELL_ROW_134_3476
*31116 TAP_TAPCELL_ROW_134_3477
*31117 TAP_TAPCELL_ROW_134_3478
*31118 TAP_TAPCELL_ROW_134_3479
*31119 TAP_TAPCELL_ROW_134_3480
*31120 TAP_TAPCELL_ROW_134_3481
*31121 TAP_TAPCELL_ROW_134_3482
*31122 TAP_TAPCELL_ROW_134_3483
*31123 TAP_TAPCELL_ROW_135_3484
*31124 TAP_TAPCELL_ROW_135_3485
*31125 TAP_TAPCELL_ROW_135_3486
*31126 TAP_TAPCELL_ROW_135_3487
*31127 TAP_TAPCELL_ROW_135_3488
*31128 TAP_TAPCELL_ROW_135_3489
*31129 TAP_TAPCELL_ROW_135_3490
*31130 TAP_TAPCELL_ROW_135_3491
*31131 TAP_TAPCELL_ROW_135_3492
*31132 TAP_TAPCELL_ROW_135_3493
*31133 TAP_TAPCELL_ROW_135_3494
*31134 TAP_TAPCELL_ROW_135_3495
*31135 TAP_TAPCELL_ROW_135_3496
*31136 TAP_TAPCELL_ROW_135_3497
*31137 TAP_TAPCELL_ROW_135_3498
*31138 TAP_TAPCELL_ROW_135_3499
*31139 TAP_TAPCELL_ROW_135_3500
*31140 TAP_TAPCELL_ROW_135_3501
*31141 TAP_TAPCELL_ROW_135_3502
*31142 TAP_TAPCELL_ROW_135_3503
*31143 TAP_TAPCELL_ROW_135_3504
*31144 TAP_TAPCELL_ROW_135_3505
*31145 TAP_TAPCELL_ROW_136_3506
*31146 TAP_TAPCELL_ROW_136_3507
*31147 TAP_TAPCELL_ROW_136_3508
*31148 TAP_TAPCELL_ROW_136_3509
*31149 TAP_TAPCELL_ROW_136_3510
*31150 TAP_TAPCELL_ROW_136_3511
*31151 TAP_TAPCELL_ROW_136_3512
*31152 TAP_TAPCELL_ROW_136_3513
*31153 TAP_TAPCELL_ROW_136_3514
*31154 TAP_TAPCELL_ROW_136_3515
*31155 TAP_TAPCELL_ROW_136_3516
*31156 TAP_TAPCELL_ROW_136_3517
*31157 TAP_TAPCELL_ROW_136_3518
*31158 TAP_TAPCELL_ROW_136_3519
*31159 TAP_TAPCELL_ROW_136_3520
*31160 TAP_TAPCELL_ROW_136_3521
*31161 TAP_TAPCELL_ROW_136_3522
*31162 TAP_TAPCELL_ROW_136_3523
*31163 TAP_TAPCELL_ROW_136_3524
*31164 TAP_TAPCELL_ROW_136_3525
*31165 TAP_TAPCELL_ROW_136_3526
*31166 TAP_TAPCELL_ROW_136_3527
*31167 TAP_TAPCELL_ROW_136_3528
*31168 TAP_TAPCELL_ROW_137_3529
*31169 TAP_TAPCELL_ROW_137_3530
*31170 TAP_TAPCELL_ROW_137_3531
*31171 TAP_TAPCELL_ROW_137_3532
*31172 TAP_TAPCELL_ROW_137_3533
*31173 TAP_TAPCELL_ROW_137_3534
*31174 TAP_TAPCELL_ROW_137_3535
*31175 TAP_TAPCELL_ROW_137_3536
*31176 TAP_TAPCELL_ROW_137_3537
*31177 TAP_TAPCELL_ROW_137_3538
*31178 TAP_TAPCELL_ROW_137_3539
*31179 TAP_TAPCELL_ROW_137_3540
*31180 TAP_TAPCELL_ROW_137_3541
*31181 TAP_TAPCELL_ROW_137_3542
*31182 TAP_TAPCELL_ROW_137_3543
*31183 TAP_TAPCELL_ROW_137_3544
*31184 TAP_TAPCELL_ROW_137_3545
*31185 TAP_TAPCELL_ROW_137_3546
*31186 TAP_TAPCELL_ROW_137_3547
*31187 TAP_TAPCELL_ROW_137_3548
*31188 TAP_TAPCELL_ROW_137_3549
*31189 TAP_TAPCELL_ROW_137_3550
*31190 TAP_TAPCELL_ROW_138_3551
*31191 TAP_TAPCELL_ROW_138_3552
*31192 TAP_TAPCELL_ROW_138_3553
*31193 TAP_TAPCELL_ROW_138_3554
*31194 TAP_TAPCELL_ROW_138_3555
*31195 TAP_TAPCELL_ROW_138_3556
*31196 TAP_TAPCELL_ROW_138_3557
*31197 TAP_TAPCELL_ROW_138_3558
*31198 TAP_TAPCELL_ROW_138_3559
*31199 TAP_TAPCELL_ROW_138_3560
*31200 TAP_TAPCELL_ROW_138_3561
*31201 TAP_TAPCELL_ROW_138_3562
*31202 TAP_TAPCELL_ROW_138_3563
*31203 TAP_TAPCELL_ROW_138_3564
*31204 TAP_TAPCELL_ROW_138_3565
*31205 TAP_TAPCELL_ROW_138_3566
*31206 TAP_TAPCELL_ROW_138_3567
*31207 TAP_TAPCELL_ROW_138_3568
*31208 TAP_TAPCELL_ROW_138_3569
*31209 TAP_TAPCELL_ROW_138_3570
*31210 TAP_TAPCELL_ROW_138_3571
*31211 TAP_TAPCELL_ROW_138_3572
*31212 TAP_TAPCELL_ROW_138_3573
*31213 TAP_TAPCELL_ROW_139_3574
*31214 TAP_TAPCELL_ROW_139_3575
*31215 TAP_TAPCELL_ROW_139_3576
*31216 TAP_TAPCELL_ROW_139_3577
*31217 TAP_TAPCELL_ROW_139_3578
*31218 TAP_TAPCELL_ROW_139_3579
*31219 TAP_TAPCELL_ROW_139_3580
*31220 TAP_TAPCELL_ROW_139_3581
*31221 TAP_TAPCELL_ROW_139_3582
*31222 TAP_TAPCELL_ROW_139_3583
*31223 TAP_TAPCELL_ROW_139_3584
*31224 TAP_TAPCELL_ROW_139_3585
*31225 TAP_TAPCELL_ROW_139_3586
*31226 TAP_TAPCELL_ROW_139_3587
*31227 TAP_TAPCELL_ROW_139_3588
*31228 TAP_TAPCELL_ROW_139_3589
*31229 TAP_TAPCELL_ROW_139_3590
*31230 TAP_TAPCELL_ROW_139_3591
*31231 TAP_TAPCELL_ROW_139_3592
*31232 TAP_TAPCELL_ROW_139_3593
*31233 TAP_TAPCELL_ROW_139_3594
*31234 TAP_TAPCELL_ROW_139_3595
*31235 TAP_TAPCELL_ROW_13_739
*31236 TAP_TAPCELL_ROW_13_740
*31237 TAP_TAPCELL_ROW_13_741
*31238 TAP_TAPCELL_ROW_13_742
*31239 TAP_TAPCELL_ROW_13_743
*31240 TAP_TAPCELL_ROW_13_744
*31241 TAP_TAPCELL_ROW_13_745
*31242 TAP_TAPCELL_ROW_13_746
*31243 TAP_TAPCELL_ROW_13_747
*31244 TAP_TAPCELL_ROW_13_748
*31245 TAP_TAPCELL_ROW_13_749
*31246 TAP_TAPCELL_ROW_13_750
*31247 TAP_TAPCELL_ROW_13_751
*31248 TAP_TAPCELL_ROW_13_752
*31249 TAP_TAPCELL_ROW_13_753
*31250 TAP_TAPCELL_ROW_13_754
*31251 TAP_TAPCELL_ROW_13_755
*31252 TAP_TAPCELL_ROW_13_756
*31253 TAP_TAPCELL_ROW_13_757
*31254 TAP_TAPCELL_ROW_13_758
*31255 TAP_TAPCELL_ROW_13_759
*31256 TAP_TAPCELL_ROW_13_760
*31257 TAP_TAPCELL_ROW_140_3596
*31258 TAP_TAPCELL_ROW_140_3597
*31259 TAP_TAPCELL_ROW_140_3598
*31260 TAP_TAPCELL_ROW_140_3599
*31261 TAP_TAPCELL_ROW_140_3600
*31262 TAP_TAPCELL_ROW_140_3601
*31263 TAP_TAPCELL_ROW_140_3602
*31264 TAP_TAPCELL_ROW_140_3603
*31265 TAP_TAPCELL_ROW_140_3604
*31266 TAP_TAPCELL_ROW_140_3605
*31267 TAP_TAPCELL_ROW_140_3606
*31268 TAP_TAPCELL_ROW_140_3607
*31269 TAP_TAPCELL_ROW_140_3608
*31270 TAP_TAPCELL_ROW_140_3609
*31271 TAP_TAPCELL_ROW_140_3610
*31272 TAP_TAPCELL_ROW_140_3611
*31273 TAP_TAPCELL_ROW_140_3612
*31274 TAP_TAPCELL_ROW_140_3613
*31275 TAP_TAPCELL_ROW_140_3614
*31276 TAP_TAPCELL_ROW_140_3615
*31277 TAP_TAPCELL_ROW_140_3616
*31278 TAP_TAPCELL_ROW_140_3617
*31279 TAP_TAPCELL_ROW_140_3618
*31280 TAP_TAPCELL_ROW_141_3619
*31281 TAP_TAPCELL_ROW_141_3620
*31282 TAP_TAPCELL_ROW_141_3621
*31283 TAP_TAPCELL_ROW_141_3622
*31284 TAP_TAPCELL_ROW_141_3623
*31285 TAP_TAPCELL_ROW_141_3624
*31286 TAP_TAPCELL_ROW_141_3625
*31287 TAP_TAPCELL_ROW_141_3626
*31288 TAP_TAPCELL_ROW_141_3627
*31289 TAP_TAPCELL_ROW_141_3628
*31290 TAP_TAPCELL_ROW_141_3629
*31291 TAP_TAPCELL_ROW_141_3630
*31292 TAP_TAPCELL_ROW_141_3631
*31293 TAP_TAPCELL_ROW_141_3632
*31294 TAP_TAPCELL_ROW_141_3633
*31295 TAP_TAPCELL_ROW_141_3634
*31296 TAP_TAPCELL_ROW_141_3635
*31297 TAP_TAPCELL_ROW_141_3636
*31298 TAP_TAPCELL_ROW_141_3637
*31299 TAP_TAPCELL_ROW_141_3638
*31300 TAP_TAPCELL_ROW_141_3639
*31301 TAP_TAPCELL_ROW_141_3640
*31302 TAP_TAPCELL_ROW_142_3641
*31303 TAP_TAPCELL_ROW_142_3642
*31304 TAP_TAPCELL_ROW_142_3643
*31305 TAP_TAPCELL_ROW_142_3644
*31306 TAP_TAPCELL_ROW_142_3645
*31307 TAP_TAPCELL_ROW_142_3646
*31308 TAP_TAPCELL_ROW_142_3647
*31309 TAP_TAPCELL_ROW_142_3648
*31310 TAP_TAPCELL_ROW_142_3649
*31311 TAP_TAPCELL_ROW_142_3650
*31312 TAP_TAPCELL_ROW_142_3651
*31313 TAP_TAPCELL_ROW_142_3652
*31314 TAP_TAPCELL_ROW_142_3653
*31315 TAP_TAPCELL_ROW_142_3654
*31316 TAP_TAPCELL_ROW_142_3655
*31317 TAP_TAPCELL_ROW_142_3656
*31318 TAP_TAPCELL_ROW_142_3657
*31319 TAP_TAPCELL_ROW_142_3658
*31320 TAP_TAPCELL_ROW_142_3659
*31321 TAP_TAPCELL_ROW_142_3660
*31322 TAP_TAPCELL_ROW_142_3661
*31323 TAP_TAPCELL_ROW_142_3662
*31324 TAP_TAPCELL_ROW_142_3663
*31325 TAP_TAPCELL_ROW_143_3664
*31326 TAP_TAPCELL_ROW_143_3665
*31327 TAP_TAPCELL_ROW_143_3666
*31328 TAP_TAPCELL_ROW_143_3667
*31329 TAP_TAPCELL_ROW_143_3668
*31330 TAP_TAPCELL_ROW_143_3669
*31331 TAP_TAPCELL_ROW_143_3670
*31332 TAP_TAPCELL_ROW_143_3671
*31333 TAP_TAPCELL_ROW_143_3672
*31334 TAP_TAPCELL_ROW_143_3673
*31335 TAP_TAPCELL_ROW_143_3674
*31336 TAP_TAPCELL_ROW_143_3675
*31337 TAP_TAPCELL_ROW_143_3676
*31338 TAP_TAPCELL_ROW_143_3677
*31339 TAP_TAPCELL_ROW_143_3678
*31340 TAP_TAPCELL_ROW_143_3679
*31341 TAP_TAPCELL_ROW_143_3680
*31342 TAP_TAPCELL_ROW_143_3681
*31343 TAP_TAPCELL_ROW_143_3682
*31344 TAP_TAPCELL_ROW_143_3683
*31345 TAP_TAPCELL_ROW_143_3684
*31346 TAP_TAPCELL_ROW_143_3685
*31347 TAP_TAPCELL_ROW_144_3686
*31348 TAP_TAPCELL_ROW_144_3687
*31349 TAP_TAPCELL_ROW_144_3688
*31350 TAP_TAPCELL_ROW_144_3689
*31351 TAP_TAPCELL_ROW_144_3690
*31352 TAP_TAPCELL_ROW_144_3691
*31353 TAP_TAPCELL_ROW_144_3692
*31354 TAP_TAPCELL_ROW_144_3693
*31355 TAP_TAPCELL_ROW_144_3694
*31356 TAP_TAPCELL_ROW_144_3695
*31357 TAP_TAPCELL_ROW_144_3696
*31358 TAP_TAPCELL_ROW_144_3697
*31359 TAP_TAPCELL_ROW_144_3698
*31360 TAP_TAPCELL_ROW_144_3699
*31361 TAP_TAPCELL_ROW_144_3700
*31362 TAP_TAPCELL_ROW_144_3701
*31363 TAP_TAPCELL_ROW_144_3702
*31364 TAP_TAPCELL_ROW_144_3703
*31365 TAP_TAPCELL_ROW_144_3704
*31366 TAP_TAPCELL_ROW_144_3705
*31367 TAP_TAPCELL_ROW_144_3706
*31368 TAP_TAPCELL_ROW_144_3707
*31369 TAP_TAPCELL_ROW_144_3708
*31370 TAP_TAPCELL_ROW_145_3709
*31371 TAP_TAPCELL_ROW_145_3710
*31372 TAP_TAPCELL_ROW_145_3711
*31373 TAP_TAPCELL_ROW_145_3712
*31374 TAP_TAPCELL_ROW_145_3713
*31375 TAP_TAPCELL_ROW_145_3714
*31376 TAP_TAPCELL_ROW_145_3715
*31377 TAP_TAPCELL_ROW_145_3716
*31378 TAP_TAPCELL_ROW_145_3717
*31379 TAP_TAPCELL_ROW_145_3718
*31380 TAP_TAPCELL_ROW_145_3719
*31381 TAP_TAPCELL_ROW_145_3720
*31382 TAP_TAPCELL_ROW_145_3721
*31383 TAP_TAPCELL_ROW_145_3722
*31384 TAP_TAPCELL_ROW_145_3723
*31385 TAP_TAPCELL_ROW_145_3724
*31386 TAP_TAPCELL_ROW_145_3725
*31387 TAP_TAPCELL_ROW_145_3726
*31388 TAP_TAPCELL_ROW_145_3727
*31389 TAP_TAPCELL_ROW_145_3728
*31390 TAP_TAPCELL_ROW_145_3729
*31391 TAP_TAPCELL_ROW_145_3730
*31392 TAP_TAPCELL_ROW_146_3731
*31393 TAP_TAPCELL_ROW_146_3732
*31394 TAP_TAPCELL_ROW_146_3733
*31395 TAP_TAPCELL_ROW_146_3734
*31396 TAP_TAPCELL_ROW_146_3735
*31397 TAP_TAPCELL_ROW_146_3736
*31398 TAP_TAPCELL_ROW_146_3737
*31399 TAP_TAPCELL_ROW_146_3738
*31400 TAP_TAPCELL_ROW_146_3739
*31401 TAP_TAPCELL_ROW_146_3740
*31402 TAP_TAPCELL_ROW_146_3741
*31403 TAP_TAPCELL_ROW_146_3742
*31404 TAP_TAPCELL_ROW_146_3743
*31405 TAP_TAPCELL_ROW_146_3744
*31406 TAP_TAPCELL_ROW_146_3745
*31407 TAP_TAPCELL_ROW_146_3746
*31408 TAP_TAPCELL_ROW_146_3747
*31409 TAP_TAPCELL_ROW_146_3748
*31410 TAP_TAPCELL_ROW_146_3749
*31411 TAP_TAPCELL_ROW_146_3750
*31412 TAP_TAPCELL_ROW_146_3751
*31413 TAP_TAPCELL_ROW_146_3752
*31414 TAP_TAPCELL_ROW_146_3753
*31415 TAP_TAPCELL_ROW_147_3754
*31416 TAP_TAPCELL_ROW_147_3755
*31417 TAP_TAPCELL_ROW_147_3756
*31418 TAP_TAPCELL_ROW_147_3757
*31419 TAP_TAPCELL_ROW_147_3758
*31420 TAP_TAPCELL_ROW_147_3759
*31421 TAP_TAPCELL_ROW_147_3760
*31422 TAP_TAPCELL_ROW_147_3761
*31423 TAP_TAPCELL_ROW_147_3762
*31424 TAP_TAPCELL_ROW_147_3763
*31425 TAP_TAPCELL_ROW_147_3764
*31426 TAP_TAPCELL_ROW_147_3765
*31427 TAP_TAPCELL_ROW_147_3766
*31428 TAP_TAPCELL_ROW_147_3767
*31429 TAP_TAPCELL_ROW_147_3768
*31430 TAP_TAPCELL_ROW_147_3769
*31431 TAP_TAPCELL_ROW_147_3770
*31432 TAP_TAPCELL_ROW_147_3771
*31433 TAP_TAPCELL_ROW_147_3772
*31434 TAP_TAPCELL_ROW_147_3773
*31435 TAP_TAPCELL_ROW_147_3774
*31436 TAP_TAPCELL_ROW_147_3775
*31437 TAP_TAPCELL_ROW_148_3776
*31438 TAP_TAPCELL_ROW_148_3777
*31439 TAP_TAPCELL_ROW_148_3778
*31440 TAP_TAPCELL_ROW_148_3779
*31441 TAP_TAPCELL_ROW_148_3780
*31442 TAP_TAPCELL_ROW_148_3781
*31443 TAP_TAPCELL_ROW_148_3782
*31444 TAP_TAPCELL_ROW_148_3783
*31445 TAP_TAPCELL_ROW_148_3784
*31446 TAP_TAPCELL_ROW_148_3785
*31447 TAP_TAPCELL_ROW_148_3786
*31448 TAP_TAPCELL_ROW_148_3787
*31449 TAP_TAPCELL_ROW_148_3788
*31450 TAP_TAPCELL_ROW_148_3789
*31451 TAP_TAPCELL_ROW_148_3790
*31452 TAP_TAPCELL_ROW_148_3791
*31453 TAP_TAPCELL_ROW_148_3792
*31454 TAP_TAPCELL_ROW_148_3793
*31455 TAP_TAPCELL_ROW_148_3794
*31456 TAP_TAPCELL_ROW_148_3795
*31457 TAP_TAPCELL_ROW_148_3796
*31458 TAP_TAPCELL_ROW_148_3797
*31459 TAP_TAPCELL_ROW_148_3798
*31460 TAP_TAPCELL_ROW_149_3799
*31461 TAP_TAPCELL_ROW_149_3800
*31462 TAP_TAPCELL_ROW_149_3801
*31463 TAP_TAPCELL_ROW_149_3802
*31464 TAP_TAPCELL_ROW_149_3803
*31465 TAP_TAPCELL_ROW_149_3804
*31466 TAP_TAPCELL_ROW_149_3805
*31467 TAP_TAPCELL_ROW_149_3806
*31468 TAP_TAPCELL_ROW_149_3807
*31469 TAP_TAPCELL_ROW_149_3808
*31470 TAP_TAPCELL_ROW_149_3809
*31471 TAP_TAPCELL_ROW_149_3810
*31472 TAP_TAPCELL_ROW_149_3811
*31473 TAP_TAPCELL_ROW_149_3812
*31474 TAP_TAPCELL_ROW_149_3813
*31475 TAP_TAPCELL_ROW_149_3814
*31476 TAP_TAPCELL_ROW_149_3815
*31477 TAP_TAPCELL_ROW_149_3816
*31478 TAP_TAPCELL_ROW_149_3817
*31479 TAP_TAPCELL_ROW_149_3818
*31480 TAP_TAPCELL_ROW_149_3819
*31481 TAP_TAPCELL_ROW_149_3820
*31482 TAP_TAPCELL_ROW_14_761
*31483 TAP_TAPCELL_ROW_14_762
*31484 TAP_TAPCELL_ROW_14_763
*31485 TAP_TAPCELL_ROW_14_764
*31486 TAP_TAPCELL_ROW_14_765
*31487 TAP_TAPCELL_ROW_14_766
*31488 TAP_TAPCELL_ROW_14_767
*31489 TAP_TAPCELL_ROW_14_768
*31490 TAP_TAPCELL_ROW_14_769
*31491 TAP_TAPCELL_ROW_14_770
*31492 TAP_TAPCELL_ROW_14_771
*31493 TAP_TAPCELL_ROW_14_772
*31494 TAP_TAPCELL_ROW_14_773
*31495 TAP_TAPCELL_ROW_14_774
*31496 TAP_TAPCELL_ROW_14_775
*31497 TAP_TAPCELL_ROW_14_776
*31498 TAP_TAPCELL_ROW_14_777
*31499 TAP_TAPCELL_ROW_14_778
*31500 TAP_TAPCELL_ROW_14_779
*31501 TAP_TAPCELL_ROW_14_780
*31502 TAP_TAPCELL_ROW_14_781
*31503 TAP_TAPCELL_ROW_14_782
*31504 TAP_TAPCELL_ROW_14_783
*31505 TAP_TAPCELL_ROW_150_3821
*31506 TAP_TAPCELL_ROW_150_3822
*31507 TAP_TAPCELL_ROW_150_3823
*31508 TAP_TAPCELL_ROW_150_3824
*31509 TAP_TAPCELL_ROW_150_3825
*31510 TAP_TAPCELL_ROW_150_3826
*31511 TAP_TAPCELL_ROW_150_3827
*31512 TAP_TAPCELL_ROW_150_3828
*31513 TAP_TAPCELL_ROW_150_3829
*31514 TAP_TAPCELL_ROW_150_3830
*31515 TAP_TAPCELL_ROW_150_3831
*31516 TAP_TAPCELL_ROW_150_3832
*31517 TAP_TAPCELL_ROW_150_3833
*31518 TAP_TAPCELL_ROW_150_3834
*31519 TAP_TAPCELL_ROW_150_3835
*31520 TAP_TAPCELL_ROW_150_3836
*31521 TAP_TAPCELL_ROW_150_3837
*31522 TAP_TAPCELL_ROW_150_3838
*31523 TAP_TAPCELL_ROW_150_3839
*31524 TAP_TAPCELL_ROW_150_3840
*31525 TAP_TAPCELL_ROW_150_3841
*31526 TAP_TAPCELL_ROW_150_3842
*31527 TAP_TAPCELL_ROW_150_3843
*31528 TAP_TAPCELL_ROW_151_3844
*31529 TAP_TAPCELL_ROW_151_3845
*31530 TAP_TAPCELL_ROW_151_3846
*31531 TAP_TAPCELL_ROW_151_3847
*31532 TAP_TAPCELL_ROW_151_3848
*31533 TAP_TAPCELL_ROW_151_3849
*31534 TAP_TAPCELL_ROW_151_3850
*31535 TAP_TAPCELL_ROW_151_3851
*31536 TAP_TAPCELL_ROW_151_3852
*31537 TAP_TAPCELL_ROW_151_3853
*31538 TAP_TAPCELL_ROW_151_3854
*31539 TAP_TAPCELL_ROW_151_3855
*31540 TAP_TAPCELL_ROW_151_3856
*31541 TAP_TAPCELL_ROW_151_3857
*31542 TAP_TAPCELL_ROW_151_3858
*31543 TAP_TAPCELL_ROW_151_3859
*31544 TAP_TAPCELL_ROW_151_3860
*31545 TAP_TAPCELL_ROW_151_3861
*31546 TAP_TAPCELL_ROW_151_3862
*31547 TAP_TAPCELL_ROW_151_3863
*31548 TAP_TAPCELL_ROW_151_3864
*31549 TAP_TAPCELL_ROW_151_3865
*31550 TAP_TAPCELL_ROW_152_3866
*31551 TAP_TAPCELL_ROW_152_3867
*31552 TAP_TAPCELL_ROW_152_3868
*31553 TAP_TAPCELL_ROW_152_3869
*31554 TAP_TAPCELL_ROW_152_3870
*31555 TAP_TAPCELL_ROW_152_3871
*31556 TAP_TAPCELL_ROW_152_3872
*31557 TAP_TAPCELL_ROW_152_3873
*31558 TAP_TAPCELL_ROW_152_3874
*31559 TAP_TAPCELL_ROW_152_3875
*31560 TAP_TAPCELL_ROW_152_3876
*31561 TAP_TAPCELL_ROW_152_3877
*31562 TAP_TAPCELL_ROW_152_3878
*31563 TAP_TAPCELL_ROW_152_3879
*31564 TAP_TAPCELL_ROW_152_3880
*31565 TAP_TAPCELL_ROW_152_3881
*31566 TAP_TAPCELL_ROW_152_3882
*31567 TAP_TAPCELL_ROW_152_3883
*31568 TAP_TAPCELL_ROW_152_3884
*31569 TAP_TAPCELL_ROW_152_3885
*31570 TAP_TAPCELL_ROW_152_3886
*31571 TAP_TAPCELL_ROW_152_3887
*31572 TAP_TAPCELL_ROW_152_3888
*31573 TAP_TAPCELL_ROW_153_3889
*31574 TAP_TAPCELL_ROW_153_3890
*31575 TAP_TAPCELL_ROW_153_3891
*31576 TAP_TAPCELL_ROW_153_3892
*31577 TAP_TAPCELL_ROW_153_3893
*31578 TAP_TAPCELL_ROW_153_3894
*31579 TAP_TAPCELL_ROW_153_3895
*31580 TAP_TAPCELL_ROW_153_3896
*31581 TAP_TAPCELL_ROW_153_3897
*31582 TAP_TAPCELL_ROW_153_3898
*31583 TAP_TAPCELL_ROW_153_3899
*31584 TAP_TAPCELL_ROW_153_3900
*31585 TAP_TAPCELL_ROW_153_3901
*31586 TAP_TAPCELL_ROW_153_3902
*31587 TAP_TAPCELL_ROW_153_3903
*31588 TAP_TAPCELL_ROW_153_3904
*31589 TAP_TAPCELL_ROW_153_3905
*31590 TAP_TAPCELL_ROW_153_3906
*31591 TAP_TAPCELL_ROW_153_3907
*31592 TAP_TAPCELL_ROW_153_3908
*31593 TAP_TAPCELL_ROW_153_3909
*31594 TAP_TAPCELL_ROW_153_3910
*31595 TAP_TAPCELL_ROW_154_3911
*31596 TAP_TAPCELL_ROW_154_3912
*31597 TAP_TAPCELL_ROW_154_3913
*31598 TAP_TAPCELL_ROW_154_3914
*31599 TAP_TAPCELL_ROW_154_3915
*31600 TAP_TAPCELL_ROW_154_3916
*31601 TAP_TAPCELL_ROW_154_3917
*31602 TAP_TAPCELL_ROW_154_3918
*31603 TAP_TAPCELL_ROW_154_3919
*31604 TAP_TAPCELL_ROW_154_3920
*31605 TAP_TAPCELL_ROW_154_3921
*31606 TAP_TAPCELL_ROW_154_3922
*31607 TAP_TAPCELL_ROW_154_3923
*31608 TAP_TAPCELL_ROW_154_3924
*31609 TAP_TAPCELL_ROW_154_3925
*31610 TAP_TAPCELL_ROW_154_3926
*31611 TAP_TAPCELL_ROW_154_3927
*31612 TAP_TAPCELL_ROW_154_3928
*31613 TAP_TAPCELL_ROW_154_3929
*31614 TAP_TAPCELL_ROW_154_3930
*31615 TAP_TAPCELL_ROW_154_3931
*31616 TAP_TAPCELL_ROW_154_3932
*31617 TAP_TAPCELL_ROW_154_3933
*31618 TAP_TAPCELL_ROW_155_3934
*31619 TAP_TAPCELL_ROW_155_3935
*31620 TAP_TAPCELL_ROW_155_3936
*31621 TAP_TAPCELL_ROW_155_3937
*31622 TAP_TAPCELL_ROW_155_3938
*31623 TAP_TAPCELL_ROW_155_3939
*31624 TAP_TAPCELL_ROW_155_3940
*31625 TAP_TAPCELL_ROW_155_3941
*31626 TAP_TAPCELL_ROW_155_3942
*31627 TAP_TAPCELL_ROW_155_3943
*31628 TAP_TAPCELL_ROW_155_3944
*31629 TAP_TAPCELL_ROW_155_3945
*31630 TAP_TAPCELL_ROW_155_3946
*31631 TAP_TAPCELL_ROW_155_3947
*31632 TAP_TAPCELL_ROW_155_3948
*31633 TAP_TAPCELL_ROW_155_3949
*31634 TAP_TAPCELL_ROW_155_3950
*31635 TAP_TAPCELL_ROW_155_3951
*31636 TAP_TAPCELL_ROW_155_3952
*31637 TAP_TAPCELL_ROW_155_3953
*31638 TAP_TAPCELL_ROW_155_3954
*31639 TAP_TAPCELL_ROW_155_3955
*31640 TAP_TAPCELL_ROW_156_3956
*31641 TAP_TAPCELL_ROW_156_3957
*31642 TAP_TAPCELL_ROW_156_3958
*31643 TAP_TAPCELL_ROW_156_3959
*31644 TAP_TAPCELL_ROW_156_3960
*31645 TAP_TAPCELL_ROW_156_3961
*31646 TAP_TAPCELL_ROW_156_3962
*31647 TAP_TAPCELL_ROW_156_3963
*31648 TAP_TAPCELL_ROW_156_3964
*31649 TAP_TAPCELL_ROW_156_3965
*31650 TAP_TAPCELL_ROW_156_3966
*31651 TAP_TAPCELL_ROW_156_3967
*31652 TAP_TAPCELL_ROW_156_3968
*31653 TAP_TAPCELL_ROW_156_3969
*31654 TAP_TAPCELL_ROW_156_3970
*31655 TAP_TAPCELL_ROW_156_3971
*31656 TAP_TAPCELL_ROW_156_3972
*31657 TAP_TAPCELL_ROW_156_3973
*31658 TAP_TAPCELL_ROW_156_3974
*31659 TAP_TAPCELL_ROW_156_3975
*31660 TAP_TAPCELL_ROW_156_3976
*31661 TAP_TAPCELL_ROW_156_3977
*31662 TAP_TAPCELL_ROW_156_3978
*31663 TAP_TAPCELL_ROW_157_3979
*31664 TAP_TAPCELL_ROW_157_3980
*31665 TAP_TAPCELL_ROW_157_3981
*31666 TAP_TAPCELL_ROW_157_3982
*31667 TAP_TAPCELL_ROW_157_3983
*31668 TAP_TAPCELL_ROW_157_3984
*31669 TAP_TAPCELL_ROW_157_3985
*31670 TAP_TAPCELL_ROW_157_3986
*31671 TAP_TAPCELL_ROW_157_3987
*31672 TAP_TAPCELL_ROW_157_3988
*31673 TAP_TAPCELL_ROW_157_3989
*31674 TAP_TAPCELL_ROW_157_3990
*31675 TAP_TAPCELL_ROW_157_3991
*31676 TAP_TAPCELL_ROW_157_3992
*31677 TAP_TAPCELL_ROW_157_3993
*31678 TAP_TAPCELL_ROW_157_3994
*31679 TAP_TAPCELL_ROW_157_3995
*31680 TAP_TAPCELL_ROW_157_3996
*31681 TAP_TAPCELL_ROW_157_3997
*31682 TAP_TAPCELL_ROW_157_3998
*31683 TAP_TAPCELL_ROW_157_3999
*31684 TAP_TAPCELL_ROW_157_4000
*31685 TAP_TAPCELL_ROW_158_4001
*31686 TAP_TAPCELL_ROW_158_4002
*31687 TAP_TAPCELL_ROW_158_4003
*31688 TAP_TAPCELL_ROW_158_4004
*31689 TAP_TAPCELL_ROW_158_4005
*31690 TAP_TAPCELL_ROW_158_4006
*31691 TAP_TAPCELL_ROW_158_4007
*31692 TAP_TAPCELL_ROW_158_4008
*31693 TAP_TAPCELL_ROW_158_4009
*31694 TAP_TAPCELL_ROW_158_4010
*31695 TAP_TAPCELL_ROW_158_4011
*31696 TAP_TAPCELL_ROW_158_4012
*31697 TAP_TAPCELL_ROW_158_4013
*31698 TAP_TAPCELL_ROW_158_4014
*31699 TAP_TAPCELL_ROW_158_4015
*31700 TAP_TAPCELL_ROW_158_4016
*31701 TAP_TAPCELL_ROW_158_4017
*31702 TAP_TAPCELL_ROW_158_4018
*31703 TAP_TAPCELL_ROW_158_4019
*31704 TAP_TAPCELL_ROW_158_4020
*31705 TAP_TAPCELL_ROW_158_4021
*31706 TAP_TAPCELL_ROW_158_4022
*31707 TAP_TAPCELL_ROW_158_4023
*31708 TAP_TAPCELL_ROW_159_4024
*31709 TAP_TAPCELL_ROW_159_4025
*31710 TAP_TAPCELL_ROW_159_4026
*31711 TAP_TAPCELL_ROW_159_4027
*31712 TAP_TAPCELL_ROW_159_4028
*31713 TAP_TAPCELL_ROW_159_4029
*31714 TAP_TAPCELL_ROW_159_4030
*31715 TAP_TAPCELL_ROW_159_4031
*31716 TAP_TAPCELL_ROW_159_4032
*31717 TAP_TAPCELL_ROW_159_4033
*31718 TAP_TAPCELL_ROW_159_4034
*31719 TAP_TAPCELL_ROW_159_4035
*31720 TAP_TAPCELL_ROW_159_4036
*31721 TAP_TAPCELL_ROW_159_4037
*31722 TAP_TAPCELL_ROW_159_4038
*31723 TAP_TAPCELL_ROW_159_4039
*31724 TAP_TAPCELL_ROW_159_4040
*31725 TAP_TAPCELL_ROW_159_4041
*31726 TAP_TAPCELL_ROW_159_4042
*31727 TAP_TAPCELL_ROW_159_4043
*31728 TAP_TAPCELL_ROW_159_4044
*31729 TAP_TAPCELL_ROW_159_4045
*31730 TAP_TAPCELL_ROW_15_784
*31731 TAP_TAPCELL_ROW_15_785
*31732 TAP_TAPCELL_ROW_15_786
*31733 TAP_TAPCELL_ROW_15_787
*31734 TAP_TAPCELL_ROW_15_788
*31735 TAP_TAPCELL_ROW_15_789
*31736 TAP_TAPCELL_ROW_15_790
*31737 TAP_TAPCELL_ROW_15_791
*31738 TAP_TAPCELL_ROW_15_792
*31739 TAP_TAPCELL_ROW_15_793
*31740 TAP_TAPCELL_ROW_15_794
*31741 TAP_TAPCELL_ROW_15_795
*31742 TAP_TAPCELL_ROW_15_796
*31743 TAP_TAPCELL_ROW_15_797
*31744 TAP_TAPCELL_ROW_15_798
*31745 TAP_TAPCELL_ROW_15_799
*31746 TAP_TAPCELL_ROW_15_800
*31747 TAP_TAPCELL_ROW_15_801
*31748 TAP_TAPCELL_ROW_15_802
*31749 TAP_TAPCELL_ROW_15_803
*31750 TAP_TAPCELL_ROW_15_804
*31751 TAP_TAPCELL_ROW_15_805
*31752 TAP_TAPCELL_ROW_160_4046
*31753 TAP_TAPCELL_ROW_160_4047
*31754 TAP_TAPCELL_ROW_160_4048
*31755 TAP_TAPCELL_ROW_160_4049
*31756 TAP_TAPCELL_ROW_160_4050
*31757 TAP_TAPCELL_ROW_160_4051
*31758 TAP_TAPCELL_ROW_160_4052
*31759 TAP_TAPCELL_ROW_160_4053
*31760 TAP_TAPCELL_ROW_160_4054
*31761 TAP_TAPCELL_ROW_160_4055
*31762 TAP_TAPCELL_ROW_160_4056
*31763 TAP_TAPCELL_ROW_160_4057
*31764 TAP_TAPCELL_ROW_160_4058
*31765 TAP_TAPCELL_ROW_160_4059
*31766 TAP_TAPCELL_ROW_160_4060
*31767 TAP_TAPCELL_ROW_160_4061
*31768 TAP_TAPCELL_ROW_160_4062
*31769 TAP_TAPCELL_ROW_160_4063
*31770 TAP_TAPCELL_ROW_160_4064
*31771 TAP_TAPCELL_ROW_160_4065
*31772 TAP_TAPCELL_ROW_160_4066
*31773 TAP_TAPCELL_ROW_160_4067
*31774 TAP_TAPCELL_ROW_160_4068
*31775 TAP_TAPCELL_ROW_161_4069
*31776 TAP_TAPCELL_ROW_161_4070
*31777 TAP_TAPCELL_ROW_161_4071
*31778 TAP_TAPCELL_ROW_161_4072
*31779 TAP_TAPCELL_ROW_161_4073
*31780 TAP_TAPCELL_ROW_161_4074
*31781 TAP_TAPCELL_ROW_161_4075
*31782 TAP_TAPCELL_ROW_161_4076
*31783 TAP_TAPCELL_ROW_161_4077
*31784 TAP_TAPCELL_ROW_161_4078
*31785 TAP_TAPCELL_ROW_161_4079
*31786 TAP_TAPCELL_ROW_161_4080
*31787 TAP_TAPCELL_ROW_161_4081
*31788 TAP_TAPCELL_ROW_161_4082
*31789 TAP_TAPCELL_ROW_161_4083
*31790 TAP_TAPCELL_ROW_161_4084
*31791 TAP_TAPCELL_ROW_161_4085
*31792 TAP_TAPCELL_ROW_161_4086
*31793 TAP_TAPCELL_ROW_161_4087
*31794 TAP_TAPCELL_ROW_161_4088
*31795 TAP_TAPCELL_ROW_161_4089
*31796 TAP_TAPCELL_ROW_161_4090
*31797 TAP_TAPCELL_ROW_162_4091
*31798 TAP_TAPCELL_ROW_162_4092
*31799 TAP_TAPCELL_ROW_162_4093
*31800 TAP_TAPCELL_ROW_162_4094
*31801 TAP_TAPCELL_ROW_162_4095
*31802 TAP_TAPCELL_ROW_162_4096
*31803 TAP_TAPCELL_ROW_162_4097
*31804 TAP_TAPCELL_ROW_162_4098
*31805 TAP_TAPCELL_ROW_162_4099
*31806 TAP_TAPCELL_ROW_162_4100
*31807 TAP_TAPCELL_ROW_162_4101
*31808 TAP_TAPCELL_ROW_162_4102
*31809 TAP_TAPCELL_ROW_162_4103
*31810 TAP_TAPCELL_ROW_162_4104
*31811 TAP_TAPCELL_ROW_162_4105
*31812 TAP_TAPCELL_ROW_162_4106
*31813 TAP_TAPCELL_ROW_162_4107
*31814 TAP_TAPCELL_ROW_162_4108
*31815 TAP_TAPCELL_ROW_162_4109
*31816 TAP_TAPCELL_ROW_162_4110
*31817 TAP_TAPCELL_ROW_162_4111
*31818 TAP_TAPCELL_ROW_162_4112
*31819 TAP_TAPCELL_ROW_162_4113
*31820 TAP_TAPCELL_ROW_163_4114
*31821 TAP_TAPCELL_ROW_163_4115
*31822 TAP_TAPCELL_ROW_163_4116
*31823 TAP_TAPCELL_ROW_163_4117
*31824 TAP_TAPCELL_ROW_163_4118
*31825 TAP_TAPCELL_ROW_163_4119
*31826 TAP_TAPCELL_ROW_163_4120
*31827 TAP_TAPCELL_ROW_163_4121
*31828 TAP_TAPCELL_ROW_163_4122
*31829 TAP_TAPCELL_ROW_163_4123
*31830 TAP_TAPCELL_ROW_163_4124
*31831 TAP_TAPCELL_ROW_163_4125
*31832 TAP_TAPCELL_ROW_163_4126
*31833 TAP_TAPCELL_ROW_163_4127
*31834 TAP_TAPCELL_ROW_163_4128
*31835 TAP_TAPCELL_ROW_163_4129
*31836 TAP_TAPCELL_ROW_163_4130
*31837 TAP_TAPCELL_ROW_163_4131
*31838 TAP_TAPCELL_ROW_163_4132
*31839 TAP_TAPCELL_ROW_163_4133
*31840 TAP_TAPCELL_ROW_163_4134
*31841 TAP_TAPCELL_ROW_163_4135
*31842 TAP_TAPCELL_ROW_164_4136
*31843 TAP_TAPCELL_ROW_164_4137
*31844 TAP_TAPCELL_ROW_164_4138
*31845 TAP_TAPCELL_ROW_164_4139
*31846 TAP_TAPCELL_ROW_164_4140
*31847 TAP_TAPCELL_ROW_164_4141
*31848 TAP_TAPCELL_ROW_164_4142
*31849 TAP_TAPCELL_ROW_164_4143
*31850 TAP_TAPCELL_ROW_164_4144
*31851 TAP_TAPCELL_ROW_164_4145
*31852 TAP_TAPCELL_ROW_164_4146
*31853 TAP_TAPCELL_ROW_164_4147
*31854 TAP_TAPCELL_ROW_164_4148
*31855 TAP_TAPCELL_ROW_164_4149
*31856 TAP_TAPCELL_ROW_164_4150
*31857 TAP_TAPCELL_ROW_164_4151
*31858 TAP_TAPCELL_ROW_164_4152
*31859 TAP_TAPCELL_ROW_164_4153
*31860 TAP_TAPCELL_ROW_164_4154
*31861 TAP_TAPCELL_ROW_164_4155
*31862 TAP_TAPCELL_ROW_164_4156
*31863 TAP_TAPCELL_ROW_164_4157
*31864 TAP_TAPCELL_ROW_164_4158
*31865 TAP_TAPCELL_ROW_165_4159
*31866 TAP_TAPCELL_ROW_165_4160
*31867 TAP_TAPCELL_ROW_165_4161
*31868 TAP_TAPCELL_ROW_165_4162
*31869 TAP_TAPCELL_ROW_165_4163
*31870 TAP_TAPCELL_ROW_165_4164
*31871 TAP_TAPCELL_ROW_165_4165
*31872 TAP_TAPCELL_ROW_165_4166
*31873 TAP_TAPCELL_ROW_165_4167
*31874 TAP_TAPCELL_ROW_165_4168
*31875 TAP_TAPCELL_ROW_165_4169
*31876 TAP_TAPCELL_ROW_165_4170
*31877 TAP_TAPCELL_ROW_165_4171
*31878 TAP_TAPCELL_ROW_165_4172
*31879 TAP_TAPCELL_ROW_165_4173
*31880 TAP_TAPCELL_ROW_165_4174
*31881 TAP_TAPCELL_ROW_165_4175
*31882 TAP_TAPCELL_ROW_165_4176
*31883 TAP_TAPCELL_ROW_165_4177
*31884 TAP_TAPCELL_ROW_165_4178
*31885 TAP_TAPCELL_ROW_165_4179
*31886 TAP_TAPCELL_ROW_165_4180
*31887 TAP_TAPCELL_ROW_166_4181
*31888 TAP_TAPCELL_ROW_166_4182
*31889 TAP_TAPCELL_ROW_166_4183
*31890 TAP_TAPCELL_ROW_166_4184
*31891 TAP_TAPCELL_ROW_166_4185
*31892 TAP_TAPCELL_ROW_166_4186
*31893 TAP_TAPCELL_ROW_166_4187
*31894 TAP_TAPCELL_ROW_166_4188
*31895 TAP_TAPCELL_ROW_166_4189
*31896 TAP_TAPCELL_ROW_166_4190
*31897 TAP_TAPCELL_ROW_166_4191
*31898 TAP_TAPCELL_ROW_166_4192
*31899 TAP_TAPCELL_ROW_166_4193
*31900 TAP_TAPCELL_ROW_166_4194
*31901 TAP_TAPCELL_ROW_166_4195
*31902 TAP_TAPCELL_ROW_166_4196
*31903 TAP_TAPCELL_ROW_166_4197
*31904 TAP_TAPCELL_ROW_166_4198
*31905 TAP_TAPCELL_ROW_166_4199
*31906 TAP_TAPCELL_ROW_166_4200
*31907 TAP_TAPCELL_ROW_166_4201
*31908 TAP_TAPCELL_ROW_166_4202
*31909 TAP_TAPCELL_ROW_166_4203
*31910 TAP_TAPCELL_ROW_167_4204
*31911 TAP_TAPCELL_ROW_167_4205
*31912 TAP_TAPCELL_ROW_167_4206
*31913 TAP_TAPCELL_ROW_167_4207
*31914 TAP_TAPCELL_ROW_167_4208
*31915 TAP_TAPCELL_ROW_167_4209
*31916 TAP_TAPCELL_ROW_167_4210
*31917 TAP_TAPCELL_ROW_167_4211
*31918 TAP_TAPCELL_ROW_167_4212
*31919 TAP_TAPCELL_ROW_167_4213
*31920 TAP_TAPCELL_ROW_167_4214
*31921 TAP_TAPCELL_ROW_167_4215
*31922 TAP_TAPCELL_ROW_167_4216
*31923 TAP_TAPCELL_ROW_167_4217
*31924 TAP_TAPCELL_ROW_167_4218
*31925 TAP_TAPCELL_ROW_167_4219
*31926 TAP_TAPCELL_ROW_167_4220
*31927 TAP_TAPCELL_ROW_167_4221
*31928 TAP_TAPCELL_ROW_167_4222
*31929 TAP_TAPCELL_ROW_167_4223
*31930 TAP_TAPCELL_ROW_167_4224
*31931 TAP_TAPCELL_ROW_167_4225
*31932 TAP_TAPCELL_ROW_168_4226
*31933 TAP_TAPCELL_ROW_168_4227
*31934 TAP_TAPCELL_ROW_168_4228
*31935 TAP_TAPCELL_ROW_168_4229
*31936 TAP_TAPCELL_ROW_168_4230
*31937 TAP_TAPCELL_ROW_168_4231
*31938 TAP_TAPCELL_ROW_168_4232
*31939 TAP_TAPCELL_ROW_168_4233
*31940 TAP_TAPCELL_ROW_168_4234
*31941 TAP_TAPCELL_ROW_168_4235
*31942 TAP_TAPCELL_ROW_168_4236
*31943 TAP_TAPCELL_ROW_168_4237
*31944 TAP_TAPCELL_ROW_168_4238
*31945 TAP_TAPCELL_ROW_168_4239
*31946 TAP_TAPCELL_ROW_168_4240
*31947 TAP_TAPCELL_ROW_168_4241
*31948 TAP_TAPCELL_ROW_168_4242
*31949 TAP_TAPCELL_ROW_168_4243
*31950 TAP_TAPCELL_ROW_168_4244
*31951 TAP_TAPCELL_ROW_168_4245
*31952 TAP_TAPCELL_ROW_168_4246
*31953 TAP_TAPCELL_ROW_168_4247
*31954 TAP_TAPCELL_ROW_168_4248
*31955 TAP_TAPCELL_ROW_169_4249
*31956 TAP_TAPCELL_ROW_169_4250
*31957 TAP_TAPCELL_ROW_169_4251
*31958 TAP_TAPCELL_ROW_169_4252
*31959 TAP_TAPCELL_ROW_169_4253
*31960 TAP_TAPCELL_ROW_169_4254
*31961 TAP_TAPCELL_ROW_169_4255
*31962 TAP_TAPCELL_ROW_169_4256
*31963 TAP_TAPCELL_ROW_169_4257
*31964 TAP_TAPCELL_ROW_169_4258
*31965 TAP_TAPCELL_ROW_169_4259
*31966 TAP_TAPCELL_ROW_169_4260
*31967 TAP_TAPCELL_ROW_169_4261
*31968 TAP_TAPCELL_ROW_169_4262
*31969 TAP_TAPCELL_ROW_169_4263
*31970 TAP_TAPCELL_ROW_169_4264
*31971 TAP_TAPCELL_ROW_169_4265
*31972 TAP_TAPCELL_ROW_169_4266
*31973 TAP_TAPCELL_ROW_169_4267
*31974 TAP_TAPCELL_ROW_169_4268
*31975 TAP_TAPCELL_ROW_169_4269
*31976 TAP_TAPCELL_ROW_169_4270
*31977 TAP_TAPCELL_ROW_16_806
*31978 TAP_TAPCELL_ROW_16_807
*31979 TAP_TAPCELL_ROW_16_808
*31980 TAP_TAPCELL_ROW_16_809
*31981 TAP_TAPCELL_ROW_16_810
*31982 TAP_TAPCELL_ROW_16_811
*31983 TAP_TAPCELL_ROW_16_812
*31984 TAP_TAPCELL_ROW_16_813
*31985 TAP_TAPCELL_ROW_16_814
*31986 TAP_TAPCELL_ROW_16_815
*31987 TAP_TAPCELL_ROW_16_816
*31988 TAP_TAPCELL_ROW_16_817
*31989 TAP_TAPCELL_ROW_16_818
*31990 TAP_TAPCELL_ROW_16_819
*31991 TAP_TAPCELL_ROW_16_820
*31992 TAP_TAPCELL_ROW_16_821
*31993 TAP_TAPCELL_ROW_16_822
*31994 TAP_TAPCELL_ROW_16_823
*31995 TAP_TAPCELL_ROW_16_824
*31996 TAP_TAPCELL_ROW_16_825
*31997 TAP_TAPCELL_ROW_16_826
*31998 TAP_TAPCELL_ROW_16_827
*31999 TAP_TAPCELL_ROW_16_828
*32000 TAP_TAPCELL_ROW_170_4271
*32001 TAP_TAPCELL_ROW_170_4272
*32002 TAP_TAPCELL_ROW_170_4273
*32003 TAP_TAPCELL_ROW_170_4274
*32004 TAP_TAPCELL_ROW_170_4275
*32005 TAP_TAPCELL_ROW_170_4276
*32006 TAP_TAPCELL_ROW_170_4277
*32007 TAP_TAPCELL_ROW_170_4278
*32008 TAP_TAPCELL_ROW_170_4279
*32009 TAP_TAPCELL_ROW_170_4280
*32010 TAP_TAPCELL_ROW_170_4281
*32011 TAP_TAPCELL_ROW_170_4282
*32012 TAP_TAPCELL_ROW_170_4283
*32013 TAP_TAPCELL_ROW_170_4284
*32014 TAP_TAPCELL_ROW_170_4285
*32015 TAP_TAPCELL_ROW_170_4286
*32016 TAP_TAPCELL_ROW_170_4287
*32017 TAP_TAPCELL_ROW_170_4288
*32018 TAP_TAPCELL_ROW_170_4289
*32019 TAP_TAPCELL_ROW_170_4290
*32020 TAP_TAPCELL_ROW_170_4291
*32021 TAP_TAPCELL_ROW_170_4292
*32022 TAP_TAPCELL_ROW_170_4293
*32023 TAP_TAPCELL_ROW_171_4294
*32024 TAP_TAPCELL_ROW_171_4295
*32025 TAP_TAPCELL_ROW_171_4296
*32026 TAP_TAPCELL_ROW_171_4297
*32027 TAP_TAPCELL_ROW_171_4298
*32028 TAP_TAPCELL_ROW_171_4299
*32029 TAP_TAPCELL_ROW_171_4300
*32030 TAP_TAPCELL_ROW_171_4301
*32031 TAP_TAPCELL_ROW_171_4302
*32032 TAP_TAPCELL_ROW_171_4303
*32033 TAP_TAPCELL_ROW_171_4304
*32034 TAP_TAPCELL_ROW_171_4305
*32035 TAP_TAPCELL_ROW_171_4306
*32036 TAP_TAPCELL_ROW_171_4307
*32037 TAP_TAPCELL_ROW_171_4308
*32038 TAP_TAPCELL_ROW_171_4309
*32039 TAP_TAPCELL_ROW_171_4310
*32040 TAP_TAPCELL_ROW_171_4311
*32041 TAP_TAPCELL_ROW_171_4312
*32042 TAP_TAPCELL_ROW_171_4313
*32043 TAP_TAPCELL_ROW_171_4314
*32044 TAP_TAPCELL_ROW_171_4315
*32045 TAP_TAPCELL_ROW_172_4316
*32046 TAP_TAPCELL_ROW_172_4317
*32047 TAP_TAPCELL_ROW_172_4318
*32048 TAP_TAPCELL_ROW_172_4319
*32049 TAP_TAPCELL_ROW_172_4320
*32050 TAP_TAPCELL_ROW_172_4321
*32051 TAP_TAPCELL_ROW_172_4322
*32052 TAP_TAPCELL_ROW_172_4323
*32053 TAP_TAPCELL_ROW_172_4324
*32054 TAP_TAPCELL_ROW_172_4325
*32055 TAP_TAPCELL_ROW_172_4326
*32056 TAP_TAPCELL_ROW_172_4327
*32057 TAP_TAPCELL_ROW_172_4328
*32058 TAP_TAPCELL_ROW_172_4329
*32059 TAP_TAPCELL_ROW_172_4330
*32060 TAP_TAPCELL_ROW_172_4331
*32061 TAP_TAPCELL_ROW_172_4332
*32062 TAP_TAPCELL_ROW_172_4333
*32063 TAP_TAPCELL_ROW_172_4334
*32064 TAP_TAPCELL_ROW_172_4335
*32065 TAP_TAPCELL_ROW_172_4336
*32066 TAP_TAPCELL_ROW_172_4337
*32067 TAP_TAPCELL_ROW_172_4338
*32068 TAP_TAPCELL_ROW_173_4339
*32069 TAP_TAPCELL_ROW_173_4340
*32070 TAP_TAPCELL_ROW_173_4341
*32071 TAP_TAPCELL_ROW_173_4342
*32072 TAP_TAPCELL_ROW_173_4343
*32073 TAP_TAPCELL_ROW_173_4344
*32074 TAP_TAPCELL_ROW_173_4345
*32075 TAP_TAPCELL_ROW_173_4346
*32076 TAP_TAPCELL_ROW_173_4347
*32077 TAP_TAPCELL_ROW_173_4348
*32078 TAP_TAPCELL_ROW_173_4349
*32079 TAP_TAPCELL_ROW_173_4350
*32080 TAP_TAPCELL_ROW_173_4351
*32081 TAP_TAPCELL_ROW_173_4352
*32082 TAP_TAPCELL_ROW_173_4353
*32083 TAP_TAPCELL_ROW_173_4354
*32084 TAP_TAPCELL_ROW_173_4355
*32085 TAP_TAPCELL_ROW_173_4356
*32086 TAP_TAPCELL_ROW_173_4357
*32087 TAP_TAPCELL_ROW_173_4358
*32088 TAP_TAPCELL_ROW_173_4359
*32089 TAP_TAPCELL_ROW_173_4360
*32090 TAP_TAPCELL_ROW_174_4361
*32091 TAP_TAPCELL_ROW_174_4362
*32092 TAP_TAPCELL_ROW_174_4363
*32093 TAP_TAPCELL_ROW_174_4364
*32094 TAP_TAPCELL_ROW_174_4365
*32095 TAP_TAPCELL_ROW_174_4366
*32096 TAP_TAPCELL_ROW_174_4367
*32097 TAP_TAPCELL_ROW_174_4368
*32098 TAP_TAPCELL_ROW_174_4369
*32099 TAP_TAPCELL_ROW_174_4370
*32100 TAP_TAPCELL_ROW_174_4371
*32101 TAP_TAPCELL_ROW_174_4372
*32102 TAP_TAPCELL_ROW_174_4373
*32103 TAP_TAPCELL_ROW_174_4374
*32104 TAP_TAPCELL_ROW_174_4375
*32105 TAP_TAPCELL_ROW_174_4376
*32106 TAP_TAPCELL_ROW_174_4377
*32107 TAP_TAPCELL_ROW_174_4378
*32108 TAP_TAPCELL_ROW_174_4379
*32109 TAP_TAPCELL_ROW_174_4380
*32110 TAP_TAPCELL_ROW_174_4381
*32111 TAP_TAPCELL_ROW_174_4382
*32112 TAP_TAPCELL_ROW_174_4383
*32113 TAP_TAPCELL_ROW_175_4384
*32114 TAP_TAPCELL_ROW_175_4385
*32115 TAP_TAPCELL_ROW_175_4386
*32116 TAP_TAPCELL_ROW_175_4387
*32117 TAP_TAPCELL_ROW_175_4388
*32118 TAP_TAPCELL_ROW_175_4389
*32119 TAP_TAPCELL_ROW_175_4390
*32120 TAP_TAPCELL_ROW_175_4391
*32121 TAP_TAPCELL_ROW_175_4392
*32122 TAP_TAPCELL_ROW_175_4393
*32123 TAP_TAPCELL_ROW_175_4394
*32124 TAP_TAPCELL_ROW_175_4395
*32125 TAP_TAPCELL_ROW_175_4396
*32126 TAP_TAPCELL_ROW_175_4397
*32127 TAP_TAPCELL_ROW_175_4398
*32128 TAP_TAPCELL_ROW_175_4399
*32129 TAP_TAPCELL_ROW_175_4400
*32130 TAP_TAPCELL_ROW_175_4401
*32131 TAP_TAPCELL_ROW_175_4402
*32132 TAP_TAPCELL_ROW_175_4403
*32133 TAP_TAPCELL_ROW_175_4404
*32134 TAP_TAPCELL_ROW_175_4405
*32135 TAP_TAPCELL_ROW_176_4406
*32136 TAP_TAPCELL_ROW_176_4407
*32137 TAP_TAPCELL_ROW_176_4408
*32138 TAP_TAPCELL_ROW_176_4409
*32139 TAP_TAPCELL_ROW_176_4410
*32140 TAP_TAPCELL_ROW_176_4411
*32141 TAP_TAPCELL_ROW_176_4412
*32142 TAP_TAPCELL_ROW_176_4413
*32143 TAP_TAPCELL_ROW_176_4414
*32144 TAP_TAPCELL_ROW_176_4415
*32145 TAP_TAPCELL_ROW_176_4416
*32146 TAP_TAPCELL_ROW_176_4417
*32147 TAP_TAPCELL_ROW_176_4418
*32148 TAP_TAPCELL_ROW_176_4419
*32149 TAP_TAPCELL_ROW_176_4420
*32150 TAP_TAPCELL_ROW_176_4421
*32151 TAP_TAPCELL_ROW_176_4422
*32152 TAP_TAPCELL_ROW_176_4423
*32153 TAP_TAPCELL_ROW_176_4424
*32154 TAP_TAPCELL_ROW_176_4425
*32155 TAP_TAPCELL_ROW_176_4426
*32156 TAP_TAPCELL_ROW_176_4427
*32157 TAP_TAPCELL_ROW_176_4428
*32158 TAP_TAPCELL_ROW_177_4429
*32159 TAP_TAPCELL_ROW_177_4430
*32160 TAP_TAPCELL_ROW_177_4431
*32161 TAP_TAPCELL_ROW_177_4432
*32162 TAP_TAPCELL_ROW_177_4433
*32163 TAP_TAPCELL_ROW_177_4434
*32164 TAP_TAPCELL_ROW_177_4435
*32165 TAP_TAPCELL_ROW_177_4436
*32166 TAP_TAPCELL_ROW_177_4437
*32167 TAP_TAPCELL_ROW_177_4438
*32168 TAP_TAPCELL_ROW_177_4439
*32169 TAP_TAPCELL_ROW_177_4440
*32170 TAP_TAPCELL_ROW_177_4441
*32171 TAP_TAPCELL_ROW_177_4442
*32172 TAP_TAPCELL_ROW_177_4443
*32173 TAP_TAPCELL_ROW_177_4444
*32174 TAP_TAPCELL_ROW_177_4445
*32175 TAP_TAPCELL_ROW_177_4446
*32176 TAP_TAPCELL_ROW_177_4447
*32177 TAP_TAPCELL_ROW_177_4448
*32178 TAP_TAPCELL_ROW_177_4449
*32179 TAP_TAPCELL_ROW_177_4450
*32180 TAP_TAPCELL_ROW_178_4451
*32181 TAP_TAPCELL_ROW_178_4452
*32182 TAP_TAPCELL_ROW_178_4453
*32183 TAP_TAPCELL_ROW_178_4454
*32184 TAP_TAPCELL_ROW_178_4455
*32185 TAP_TAPCELL_ROW_178_4456
*32186 TAP_TAPCELL_ROW_178_4457
*32187 TAP_TAPCELL_ROW_178_4458
*32188 TAP_TAPCELL_ROW_178_4459
*32189 TAP_TAPCELL_ROW_178_4460
*32190 TAP_TAPCELL_ROW_178_4461
*32191 TAP_TAPCELL_ROW_178_4462
*32192 TAP_TAPCELL_ROW_178_4463
*32193 TAP_TAPCELL_ROW_178_4464
*32194 TAP_TAPCELL_ROW_178_4465
*32195 TAP_TAPCELL_ROW_178_4466
*32196 TAP_TAPCELL_ROW_178_4467
*32197 TAP_TAPCELL_ROW_178_4468
*32198 TAP_TAPCELL_ROW_178_4469
*32199 TAP_TAPCELL_ROW_178_4470
*32200 TAP_TAPCELL_ROW_178_4471
*32201 TAP_TAPCELL_ROW_178_4472
*32202 TAP_TAPCELL_ROW_178_4473
*32203 TAP_TAPCELL_ROW_179_4474
*32204 TAP_TAPCELL_ROW_179_4475
*32205 TAP_TAPCELL_ROW_179_4476
*32206 TAP_TAPCELL_ROW_179_4477
*32207 TAP_TAPCELL_ROW_179_4478
*32208 TAP_TAPCELL_ROW_179_4479
*32209 TAP_TAPCELL_ROW_179_4480
*32210 TAP_TAPCELL_ROW_179_4481
*32211 TAP_TAPCELL_ROW_179_4482
*32212 TAP_TAPCELL_ROW_179_4483
*32213 TAP_TAPCELL_ROW_179_4484
*32214 TAP_TAPCELL_ROW_179_4485
*32215 TAP_TAPCELL_ROW_179_4486
*32216 TAP_TAPCELL_ROW_179_4487
*32217 TAP_TAPCELL_ROW_179_4488
*32218 TAP_TAPCELL_ROW_179_4489
*32219 TAP_TAPCELL_ROW_179_4490
*32220 TAP_TAPCELL_ROW_179_4491
*32221 TAP_TAPCELL_ROW_179_4492
*32222 TAP_TAPCELL_ROW_179_4493
*32223 TAP_TAPCELL_ROW_179_4494
*32224 TAP_TAPCELL_ROW_179_4495
*32225 TAP_TAPCELL_ROW_17_829
*32226 TAP_TAPCELL_ROW_17_830
*32227 TAP_TAPCELL_ROW_17_831
*32228 TAP_TAPCELL_ROW_17_832
*32229 TAP_TAPCELL_ROW_17_833
*32230 TAP_TAPCELL_ROW_17_834
*32231 TAP_TAPCELL_ROW_17_835
*32232 TAP_TAPCELL_ROW_17_836
*32233 TAP_TAPCELL_ROW_17_837
*32234 TAP_TAPCELL_ROW_17_838
*32235 TAP_TAPCELL_ROW_17_839
*32236 TAP_TAPCELL_ROW_17_840
*32237 TAP_TAPCELL_ROW_17_841
*32238 TAP_TAPCELL_ROW_17_842
*32239 TAP_TAPCELL_ROW_17_843
*32240 TAP_TAPCELL_ROW_17_844
*32241 TAP_TAPCELL_ROW_17_845
*32242 TAP_TAPCELL_ROW_17_846
*32243 TAP_TAPCELL_ROW_17_847
*32244 TAP_TAPCELL_ROW_17_848
*32245 TAP_TAPCELL_ROW_17_849
*32246 TAP_TAPCELL_ROW_17_850
*32247 TAP_TAPCELL_ROW_180_4496
*32248 TAP_TAPCELL_ROW_180_4497
*32249 TAP_TAPCELL_ROW_180_4498
*32250 TAP_TAPCELL_ROW_180_4499
*32251 TAP_TAPCELL_ROW_180_4500
*32252 TAP_TAPCELL_ROW_180_4501
*32253 TAP_TAPCELL_ROW_180_4502
*32254 TAP_TAPCELL_ROW_180_4503
*32255 TAP_TAPCELL_ROW_180_4504
*32256 TAP_TAPCELL_ROW_180_4505
*32257 TAP_TAPCELL_ROW_180_4506
*32258 TAP_TAPCELL_ROW_180_4507
*32259 TAP_TAPCELL_ROW_180_4508
*32260 TAP_TAPCELL_ROW_180_4509
*32261 TAP_TAPCELL_ROW_180_4510
*32262 TAP_TAPCELL_ROW_180_4511
*32263 TAP_TAPCELL_ROW_180_4512
*32264 TAP_TAPCELL_ROW_180_4513
*32265 TAP_TAPCELL_ROW_180_4514
*32266 TAP_TAPCELL_ROW_180_4515
*32267 TAP_TAPCELL_ROW_180_4516
*32268 TAP_TAPCELL_ROW_180_4517
*32269 TAP_TAPCELL_ROW_180_4518
*32270 TAP_TAPCELL_ROW_181_4519
*32271 TAP_TAPCELL_ROW_181_4520
*32272 TAP_TAPCELL_ROW_181_4521
*32273 TAP_TAPCELL_ROW_181_4522
*32274 TAP_TAPCELL_ROW_181_4523
*32275 TAP_TAPCELL_ROW_181_4524
*32276 TAP_TAPCELL_ROW_181_4525
*32277 TAP_TAPCELL_ROW_181_4526
*32278 TAP_TAPCELL_ROW_181_4527
*32279 TAP_TAPCELL_ROW_181_4528
*32280 TAP_TAPCELL_ROW_181_4529
*32281 TAP_TAPCELL_ROW_181_4530
*32282 TAP_TAPCELL_ROW_181_4531
*32283 TAP_TAPCELL_ROW_181_4532
*32284 TAP_TAPCELL_ROW_181_4533
*32285 TAP_TAPCELL_ROW_181_4534
*32286 TAP_TAPCELL_ROW_181_4535
*32287 TAP_TAPCELL_ROW_181_4536
*32288 TAP_TAPCELL_ROW_181_4537
*32289 TAP_TAPCELL_ROW_181_4538
*32290 TAP_TAPCELL_ROW_181_4539
*32291 TAP_TAPCELL_ROW_181_4540
*32292 TAP_TAPCELL_ROW_182_4541
*32293 TAP_TAPCELL_ROW_182_4542
*32294 TAP_TAPCELL_ROW_182_4543
*32295 TAP_TAPCELL_ROW_182_4544
*32296 TAP_TAPCELL_ROW_182_4545
*32297 TAP_TAPCELL_ROW_182_4546
*32298 TAP_TAPCELL_ROW_182_4547
*32299 TAP_TAPCELL_ROW_182_4548
*32300 TAP_TAPCELL_ROW_182_4549
*32301 TAP_TAPCELL_ROW_182_4550
*32302 TAP_TAPCELL_ROW_182_4551
*32303 TAP_TAPCELL_ROW_182_4552
*32304 TAP_TAPCELL_ROW_182_4553
*32305 TAP_TAPCELL_ROW_182_4554
*32306 TAP_TAPCELL_ROW_182_4555
*32307 TAP_TAPCELL_ROW_182_4556
*32308 TAP_TAPCELL_ROW_182_4557
*32309 TAP_TAPCELL_ROW_182_4558
*32310 TAP_TAPCELL_ROW_182_4559
*32311 TAP_TAPCELL_ROW_182_4560
*32312 TAP_TAPCELL_ROW_182_4561
*32313 TAP_TAPCELL_ROW_182_4562
*32314 TAP_TAPCELL_ROW_182_4563
*32315 TAP_TAPCELL_ROW_183_4564
*32316 TAP_TAPCELL_ROW_183_4565
*32317 TAP_TAPCELL_ROW_183_4566
*32318 TAP_TAPCELL_ROW_183_4567
*32319 TAP_TAPCELL_ROW_183_4568
*32320 TAP_TAPCELL_ROW_183_4569
*32321 TAP_TAPCELL_ROW_183_4570
*32322 TAP_TAPCELL_ROW_183_4571
*32323 TAP_TAPCELL_ROW_183_4572
*32324 TAP_TAPCELL_ROW_183_4573
*32325 TAP_TAPCELL_ROW_183_4574
*32326 TAP_TAPCELL_ROW_183_4575
*32327 TAP_TAPCELL_ROW_183_4576
*32328 TAP_TAPCELL_ROW_183_4577
*32329 TAP_TAPCELL_ROW_183_4578
*32330 TAP_TAPCELL_ROW_183_4579
*32331 TAP_TAPCELL_ROW_183_4580
*32332 TAP_TAPCELL_ROW_183_4581
*32333 TAP_TAPCELL_ROW_183_4582
*32334 TAP_TAPCELL_ROW_183_4583
*32335 TAP_TAPCELL_ROW_183_4584
*32336 TAP_TAPCELL_ROW_183_4585
*32337 TAP_TAPCELL_ROW_184_4586
*32338 TAP_TAPCELL_ROW_184_4587
*32339 TAP_TAPCELL_ROW_184_4588
*32340 TAP_TAPCELL_ROW_184_4589
*32341 TAP_TAPCELL_ROW_184_4590
*32342 TAP_TAPCELL_ROW_184_4591
*32343 TAP_TAPCELL_ROW_184_4592
*32344 TAP_TAPCELL_ROW_184_4593
*32345 TAP_TAPCELL_ROW_184_4594
*32346 TAP_TAPCELL_ROW_184_4595
*32347 TAP_TAPCELL_ROW_184_4596
*32348 TAP_TAPCELL_ROW_184_4597
*32349 TAP_TAPCELL_ROW_184_4598
*32350 TAP_TAPCELL_ROW_184_4599
*32351 TAP_TAPCELL_ROW_184_4600
*32352 TAP_TAPCELL_ROW_184_4601
*32353 TAP_TAPCELL_ROW_184_4602
*32354 TAP_TAPCELL_ROW_184_4603
*32355 TAP_TAPCELL_ROW_184_4604
*32356 TAP_TAPCELL_ROW_184_4605
*32357 TAP_TAPCELL_ROW_184_4606
*32358 TAP_TAPCELL_ROW_184_4607
*32359 TAP_TAPCELL_ROW_184_4608
*32360 TAP_TAPCELL_ROW_185_4609
*32361 TAP_TAPCELL_ROW_185_4610
*32362 TAP_TAPCELL_ROW_185_4611
*32363 TAP_TAPCELL_ROW_185_4612
*32364 TAP_TAPCELL_ROW_185_4613
*32365 TAP_TAPCELL_ROW_185_4614
*32366 TAP_TAPCELL_ROW_185_4615
*32367 TAP_TAPCELL_ROW_185_4616
*32368 TAP_TAPCELL_ROW_185_4617
*32369 TAP_TAPCELL_ROW_185_4618
*32370 TAP_TAPCELL_ROW_185_4619
*32371 TAP_TAPCELL_ROW_185_4620
*32372 TAP_TAPCELL_ROW_185_4621
*32373 TAP_TAPCELL_ROW_185_4622
*32374 TAP_TAPCELL_ROW_185_4623
*32375 TAP_TAPCELL_ROW_185_4624
*32376 TAP_TAPCELL_ROW_185_4625
*32377 TAP_TAPCELL_ROW_185_4626
*32378 TAP_TAPCELL_ROW_185_4627
*32379 TAP_TAPCELL_ROW_185_4628
*32380 TAP_TAPCELL_ROW_185_4629
*32381 TAP_TAPCELL_ROW_185_4630
*32382 TAP_TAPCELL_ROW_186_4631
*32383 TAP_TAPCELL_ROW_186_4632
*32384 TAP_TAPCELL_ROW_186_4633
*32385 TAP_TAPCELL_ROW_186_4634
*32386 TAP_TAPCELL_ROW_186_4635
*32387 TAP_TAPCELL_ROW_186_4636
*32388 TAP_TAPCELL_ROW_186_4637
*32389 TAP_TAPCELL_ROW_186_4638
*32390 TAP_TAPCELL_ROW_186_4639
*32391 TAP_TAPCELL_ROW_186_4640
*32392 TAP_TAPCELL_ROW_186_4641
*32393 TAP_TAPCELL_ROW_186_4642
*32394 TAP_TAPCELL_ROW_186_4643
*32395 TAP_TAPCELL_ROW_186_4644
*32396 TAP_TAPCELL_ROW_186_4645
*32397 TAP_TAPCELL_ROW_186_4646
*32398 TAP_TAPCELL_ROW_186_4647
*32399 TAP_TAPCELL_ROW_186_4648
*32400 TAP_TAPCELL_ROW_186_4649
*32401 TAP_TAPCELL_ROW_186_4650
*32402 TAP_TAPCELL_ROW_186_4651
*32403 TAP_TAPCELL_ROW_186_4652
*32404 TAP_TAPCELL_ROW_186_4653
*32405 TAP_TAPCELL_ROW_187_4654
*32406 TAP_TAPCELL_ROW_187_4655
*32407 TAP_TAPCELL_ROW_187_4656
*32408 TAP_TAPCELL_ROW_187_4657
*32409 TAP_TAPCELL_ROW_187_4658
*32410 TAP_TAPCELL_ROW_187_4659
*32411 TAP_TAPCELL_ROW_187_4660
*32412 TAP_TAPCELL_ROW_187_4661
*32413 TAP_TAPCELL_ROW_187_4662
*32414 TAP_TAPCELL_ROW_187_4663
*32415 TAP_TAPCELL_ROW_187_4664
*32416 TAP_TAPCELL_ROW_187_4665
*32417 TAP_TAPCELL_ROW_187_4666
*32418 TAP_TAPCELL_ROW_187_4667
*32419 TAP_TAPCELL_ROW_187_4668
*32420 TAP_TAPCELL_ROW_187_4669
*32421 TAP_TAPCELL_ROW_187_4670
*32422 TAP_TAPCELL_ROW_187_4671
*32423 TAP_TAPCELL_ROW_187_4672
*32424 TAP_TAPCELL_ROW_187_4673
*32425 TAP_TAPCELL_ROW_187_4674
*32426 TAP_TAPCELL_ROW_187_4675
*32427 TAP_TAPCELL_ROW_188_4676
*32428 TAP_TAPCELL_ROW_188_4677
*32429 TAP_TAPCELL_ROW_188_4678
*32430 TAP_TAPCELL_ROW_188_4679
*32431 TAP_TAPCELL_ROW_188_4680
*32432 TAP_TAPCELL_ROW_188_4681
*32433 TAP_TAPCELL_ROW_188_4682
*32434 TAP_TAPCELL_ROW_188_4683
*32435 TAP_TAPCELL_ROW_188_4684
*32436 TAP_TAPCELL_ROW_188_4685
*32437 TAP_TAPCELL_ROW_188_4686
*32438 TAP_TAPCELL_ROW_188_4687
*32439 TAP_TAPCELL_ROW_188_4688
*32440 TAP_TAPCELL_ROW_188_4689
*32441 TAP_TAPCELL_ROW_188_4690
*32442 TAP_TAPCELL_ROW_188_4691
*32443 TAP_TAPCELL_ROW_188_4692
*32444 TAP_TAPCELL_ROW_188_4693
*32445 TAP_TAPCELL_ROW_188_4694
*32446 TAP_TAPCELL_ROW_188_4695
*32447 TAP_TAPCELL_ROW_188_4696
*32448 TAP_TAPCELL_ROW_188_4697
*32449 TAP_TAPCELL_ROW_188_4698
*32450 TAP_TAPCELL_ROW_189_4699
*32451 TAP_TAPCELL_ROW_189_4700
*32452 TAP_TAPCELL_ROW_189_4701
*32453 TAP_TAPCELL_ROW_189_4702
*32454 TAP_TAPCELL_ROW_189_4703
*32455 TAP_TAPCELL_ROW_189_4704
*32456 TAP_TAPCELL_ROW_189_4705
*32457 TAP_TAPCELL_ROW_189_4706
*32458 TAP_TAPCELL_ROW_189_4707
*32459 TAP_TAPCELL_ROW_189_4708
*32460 TAP_TAPCELL_ROW_189_4709
*32461 TAP_TAPCELL_ROW_189_4710
*32462 TAP_TAPCELL_ROW_189_4711
*32463 TAP_TAPCELL_ROW_189_4712
*32464 TAP_TAPCELL_ROW_189_4713
*32465 TAP_TAPCELL_ROW_189_4714
*32466 TAP_TAPCELL_ROW_189_4715
*32467 TAP_TAPCELL_ROW_189_4716
*32468 TAP_TAPCELL_ROW_189_4717
*32469 TAP_TAPCELL_ROW_189_4718
*32470 TAP_TAPCELL_ROW_189_4719
*32471 TAP_TAPCELL_ROW_189_4720
*32472 TAP_TAPCELL_ROW_18_851
*32473 TAP_TAPCELL_ROW_18_852
*32474 TAP_TAPCELL_ROW_18_853
*32475 TAP_TAPCELL_ROW_18_854
*32476 TAP_TAPCELL_ROW_18_855
*32477 TAP_TAPCELL_ROW_18_856
*32478 TAP_TAPCELL_ROW_18_857
*32479 TAP_TAPCELL_ROW_18_858
*32480 TAP_TAPCELL_ROW_18_859
*32481 TAP_TAPCELL_ROW_18_860
*32482 TAP_TAPCELL_ROW_18_861
*32483 TAP_TAPCELL_ROW_18_862
*32484 TAP_TAPCELL_ROW_18_863
*32485 TAP_TAPCELL_ROW_18_864
*32486 TAP_TAPCELL_ROW_18_865
*32487 TAP_TAPCELL_ROW_18_866
*32488 TAP_TAPCELL_ROW_18_867
*32489 TAP_TAPCELL_ROW_18_868
*32490 TAP_TAPCELL_ROW_18_869
*32491 TAP_TAPCELL_ROW_18_870
*32492 TAP_TAPCELL_ROW_18_871
*32493 TAP_TAPCELL_ROW_18_872
*32494 TAP_TAPCELL_ROW_18_873
*32495 TAP_TAPCELL_ROW_190_4721
*32496 TAP_TAPCELL_ROW_190_4722
*32497 TAP_TAPCELL_ROW_190_4723
*32498 TAP_TAPCELL_ROW_190_4724
*32499 TAP_TAPCELL_ROW_190_4725
*32500 TAP_TAPCELL_ROW_190_4726
*32501 TAP_TAPCELL_ROW_190_4727
*32502 TAP_TAPCELL_ROW_190_4728
*32503 TAP_TAPCELL_ROW_190_4729
*32504 TAP_TAPCELL_ROW_190_4730
*32505 TAP_TAPCELL_ROW_190_4731
*32506 TAP_TAPCELL_ROW_190_4732
*32507 TAP_TAPCELL_ROW_190_4733
*32508 TAP_TAPCELL_ROW_190_4734
*32509 TAP_TAPCELL_ROW_190_4735
*32510 TAP_TAPCELL_ROW_190_4736
*32511 TAP_TAPCELL_ROW_190_4737
*32512 TAP_TAPCELL_ROW_190_4738
*32513 TAP_TAPCELL_ROW_190_4739
*32514 TAP_TAPCELL_ROW_190_4740
*32515 TAP_TAPCELL_ROW_190_4741
*32516 TAP_TAPCELL_ROW_190_4742
*32517 TAP_TAPCELL_ROW_190_4743
*32518 TAP_TAPCELL_ROW_191_4744
*32519 TAP_TAPCELL_ROW_191_4745
*32520 TAP_TAPCELL_ROW_191_4746
*32521 TAP_TAPCELL_ROW_191_4747
*32522 TAP_TAPCELL_ROW_191_4748
*32523 TAP_TAPCELL_ROW_191_4749
*32524 TAP_TAPCELL_ROW_191_4750
*32525 TAP_TAPCELL_ROW_191_4751
*32526 TAP_TAPCELL_ROW_191_4752
*32527 TAP_TAPCELL_ROW_191_4753
*32528 TAP_TAPCELL_ROW_191_4754
*32529 TAP_TAPCELL_ROW_191_4755
*32530 TAP_TAPCELL_ROW_191_4756
*32531 TAP_TAPCELL_ROW_191_4757
*32532 TAP_TAPCELL_ROW_191_4758
*32533 TAP_TAPCELL_ROW_191_4759
*32534 TAP_TAPCELL_ROW_191_4760
*32535 TAP_TAPCELL_ROW_191_4761
*32536 TAP_TAPCELL_ROW_191_4762
*32537 TAP_TAPCELL_ROW_191_4763
*32538 TAP_TAPCELL_ROW_191_4764
*32539 TAP_TAPCELL_ROW_191_4765
*32540 TAP_TAPCELL_ROW_192_4766
*32541 TAP_TAPCELL_ROW_192_4767
*32542 TAP_TAPCELL_ROW_192_4768
*32543 TAP_TAPCELL_ROW_192_4769
*32544 TAP_TAPCELL_ROW_192_4770
*32545 TAP_TAPCELL_ROW_192_4771
*32546 TAP_TAPCELL_ROW_192_4772
*32547 TAP_TAPCELL_ROW_192_4773
*32548 TAP_TAPCELL_ROW_192_4774
*32549 TAP_TAPCELL_ROW_192_4775
*32550 TAP_TAPCELL_ROW_192_4776
*32551 TAP_TAPCELL_ROW_192_4777
*32552 TAP_TAPCELL_ROW_192_4778
*32553 TAP_TAPCELL_ROW_192_4779
*32554 TAP_TAPCELL_ROW_192_4780
*32555 TAP_TAPCELL_ROW_192_4781
*32556 TAP_TAPCELL_ROW_192_4782
*32557 TAP_TAPCELL_ROW_192_4783
*32558 TAP_TAPCELL_ROW_192_4784
*32559 TAP_TAPCELL_ROW_192_4785
*32560 TAP_TAPCELL_ROW_192_4786
*32561 TAP_TAPCELL_ROW_192_4787
*32562 TAP_TAPCELL_ROW_192_4788
*32563 TAP_TAPCELL_ROW_193_4789
*32564 TAP_TAPCELL_ROW_193_4790
*32565 TAP_TAPCELL_ROW_193_4791
*32566 TAP_TAPCELL_ROW_193_4792
*32567 TAP_TAPCELL_ROW_193_4793
*32568 TAP_TAPCELL_ROW_193_4794
*32569 TAP_TAPCELL_ROW_193_4795
*32570 TAP_TAPCELL_ROW_193_4796
*32571 TAP_TAPCELL_ROW_193_4797
*32572 TAP_TAPCELL_ROW_193_4798
*32573 TAP_TAPCELL_ROW_193_4799
*32574 TAP_TAPCELL_ROW_193_4800
*32575 TAP_TAPCELL_ROW_193_4801
*32576 TAP_TAPCELL_ROW_193_4802
*32577 TAP_TAPCELL_ROW_193_4803
*32578 TAP_TAPCELL_ROW_193_4804
*32579 TAP_TAPCELL_ROW_193_4805
*32580 TAP_TAPCELL_ROW_193_4806
*32581 TAP_TAPCELL_ROW_193_4807
*32582 TAP_TAPCELL_ROW_193_4808
*32583 TAP_TAPCELL_ROW_193_4809
*32584 TAP_TAPCELL_ROW_193_4810
*32585 TAP_TAPCELL_ROW_194_4811
*32586 TAP_TAPCELL_ROW_194_4812
*32587 TAP_TAPCELL_ROW_194_4813
*32588 TAP_TAPCELL_ROW_194_4814
*32589 TAP_TAPCELL_ROW_194_4815
*32590 TAP_TAPCELL_ROW_194_4816
*32591 TAP_TAPCELL_ROW_194_4817
*32592 TAP_TAPCELL_ROW_194_4818
*32593 TAP_TAPCELL_ROW_194_4819
*32594 TAP_TAPCELL_ROW_194_4820
*32595 TAP_TAPCELL_ROW_194_4821
*32596 TAP_TAPCELL_ROW_194_4822
*32597 TAP_TAPCELL_ROW_194_4823
*32598 TAP_TAPCELL_ROW_194_4824
*32599 TAP_TAPCELL_ROW_194_4825
*32600 TAP_TAPCELL_ROW_194_4826
*32601 TAP_TAPCELL_ROW_194_4827
*32602 TAP_TAPCELL_ROW_194_4828
*32603 TAP_TAPCELL_ROW_194_4829
*32604 TAP_TAPCELL_ROW_194_4830
*32605 TAP_TAPCELL_ROW_194_4831
*32606 TAP_TAPCELL_ROW_194_4832
*32607 TAP_TAPCELL_ROW_194_4833
*32608 TAP_TAPCELL_ROW_195_4834
*32609 TAP_TAPCELL_ROW_195_4835
*32610 TAP_TAPCELL_ROW_195_4836
*32611 TAP_TAPCELL_ROW_195_4837
*32612 TAP_TAPCELL_ROW_195_4838
*32613 TAP_TAPCELL_ROW_195_4839
*32614 TAP_TAPCELL_ROW_195_4840
*32615 TAP_TAPCELL_ROW_195_4841
*32616 TAP_TAPCELL_ROW_195_4842
*32617 TAP_TAPCELL_ROW_195_4843
*32618 TAP_TAPCELL_ROW_195_4844
*32619 TAP_TAPCELL_ROW_195_4845
*32620 TAP_TAPCELL_ROW_195_4846
*32621 TAP_TAPCELL_ROW_195_4847
*32622 TAP_TAPCELL_ROW_195_4848
*32623 TAP_TAPCELL_ROW_195_4849
*32624 TAP_TAPCELL_ROW_195_4850
*32625 TAP_TAPCELL_ROW_195_4851
*32626 TAP_TAPCELL_ROW_195_4852
*32627 TAP_TAPCELL_ROW_195_4853
*32628 TAP_TAPCELL_ROW_195_4854
*32629 TAP_TAPCELL_ROW_195_4855
*32630 TAP_TAPCELL_ROW_196_4856
*32631 TAP_TAPCELL_ROW_196_4857
*32632 TAP_TAPCELL_ROW_196_4858
*32633 TAP_TAPCELL_ROW_196_4859
*32634 TAP_TAPCELL_ROW_196_4860
*32635 TAP_TAPCELL_ROW_196_4861
*32636 TAP_TAPCELL_ROW_196_4862
*32637 TAP_TAPCELL_ROW_196_4863
*32638 TAP_TAPCELL_ROW_196_4864
*32639 TAP_TAPCELL_ROW_196_4865
*32640 TAP_TAPCELL_ROW_196_4866
*32641 TAP_TAPCELL_ROW_196_4867
*32642 TAP_TAPCELL_ROW_196_4868
*32643 TAP_TAPCELL_ROW_196_4869
*32644 TAP_TAPCELL_ROW_196_4870
*32645 TAP_TAPCELL_ROW_196_4871
*32646 TAP_TAPCELL_ROW_196_4872
*32647 TAP_TAPCELL_ROW_196_4873
*32648 TAP_TAPCELL_ROW_196_4874
*32649 TAP_TAPCELL_ROW_196_4875
*32650 TAP_TAPCELL_ROW_196_4876
*32651 TAP_TAPCELL_ROW_196_4877
*32652 TAP_TAPCELL_ROW_196_4878
*32653 TAP_TAPCELL_ROW_197_4879
*32654 TAP_TAPCELL_ROW_197_4880
*32655 TAP_TAPCELL_ROW_197_4881
*32656 TAP_TAPCELL_ROW_197_4882
*32657 TAP_TAPCELL_ROW_197_4883
*32658 TAP_TAPCELL_ROW_197_4884
*32659 TAP_TAPCELL_ROW_197_4885
*32660 TAP_TAPCELL_ROW_197_4886
*32661 TAP_TAPCELL_ROW_197_4887
*32662 TAP_TAPCELL_ROW_197_4888
*32663 TAP_TAPCELL_ROW_197_4889
*32664 TAP_TAPCELL_ROW_197_4890
*32665 TAP_TAPCELL_ROW_197_4891
*32666 TAP_TAPCELL_ROW_197_4892
*32667 TAP_TAPCELL_ROW_197_4893
*32668 TAP_TAPCELL_ROW_197_4894
*32669 TAP_TAPCELL_ROW_197_4895
*32670 TAP_TAPCELL_ROW_197_4896
*32671 TAP_TAPCELL_ROW_197_4897
*32672 TAP_TAPCELL_ROW_197_4898
*32673 TAP_TAPCELL_ROW_197_4899
*32674 TAP_TAPCELL_ROW_197_4900
*32675 TAP_TAPCELL_ROW_198_4901
*32676 TAP_TAPCELL_ROW_198_4902
*32677 TAP_TAPCELL_ROW_198_4903
*32678 TAP_TAPCELL_ROW_198_4904
*32679 TAP_TAPCELL_ROW_198_4905
*32680 TAP_TAPCELL_ROW_198_4906
*32681 TAP_TAPCELL_ROW_198_4907
*32682 TAP_TAPCELL_ROW_198_4908
*32683 TAP_TAPCELL_ROW_198_4909
*32684 TAP_TAPCELL_ROW_198_4910
*32685 TAP_TAPCELL_ROW_198_4911
*32686 TAP_TAPCELL_ROW_198_4912
*32687 TAP_TAPCELL_ROW_198_4913
*32688 TAP_TAPCELL_ROW_198_4914
*32689 TAP_TAPCELL_ROW_198_4915
*32690 TAP_TAPCELL_ROW_198_4916
*32691 TAP_TAPCELL_ROW_198_4917
*32692 TAP_TAPCELL_ROW_198_4918
*32693 TAP_TAPCELL_ROW_198_4919
*32694 TAP_TAPCELL_ROW_198_4920
*32695 TAP_TAPCELL_ROW_198_4921
*32696 TAP_TAPCELL_ROW_198_4922
*32697 TAP_TAPCELL_ROW_198_4923
*32698 TAP_TAPCELL_ROW_199_4924
*32699 TAP_TAPCELL_ROW_199_4925
*32700 TAP_TAPCELL_ROW_199_4926
*32701 TAP_TAPCELL_ROW_199_4927
*32702 TAP_TAPCELL_ROW_199_4928
*32703 TAP_TAPCELL_ROW_199_4929
*32704 TAP_TAPCELL_ROW_199_4930
*32705 TAP_TAPCELL_ROW_199_4931
*32706 TAP_TAPCELL_ROW_199_4932
*32707 TAP_TAPCELL_ROW_199_4933
*32708 TAP_TAPCELL_ROW_199_4934
*32709 TAP_TAPCELL_ROW_199_4935
*32710 TAP_TAPCELL_ROW_199_4936
*32711 TAP_TAPCELL_ROW_199_4937
*32712 TAP_TAPCELL_ROW_199_4938
*32713 TAP_TAPCELL_ROW_199_4939
*32714 TAP_TAPCELL_ROW_199_4940
*32715 TAP_TAPCELL_ROW_199_4941
*32716 TAP_TAPCELL_ROW_199_4942
*32717 TAP_TAPCELL_ROW_199_4943
*32718 TAP_TAPCELL_ROW_199_4944
*32719 TAP_TAPCELL_ROW_199_4945
*32720 TAP_TAPCELL_ROW_19_874
*32721 TAP_TAPCELL_ROW_19_875
*32722 TAP_TAPCELL_ROW_19_876
*32723 TAP_TAPCELL_ROW_19_877
*32724 TAP_TAPCELL_ROW_19_878
*32725 TAP_TAPCELL_ROW_19_879
*32726 TAP_TAPCELL_ROW_19_880
*32727 TAP_TAPCELL_ROW_19_881
*32728 TAP_TAPCELL_ROW_19_882
*32729 TAP_TAPCELL_ROW_19_883
*32730 TAP_TAPCELL_ROW_19_884
*32731 TAP_TAPCELL_ROW_19_885
*32732 TAP_TAPCELL_ROW_19_886
*32733 TAP_TAPCELL_ROW_19_887
*32734 TAP_TAPCELL_ROW_19_888
*32735 TAP_TAPCELL_ROW_19_889
*32736 TAP_TAPCELL_ROW_19_890
*32737 TAP_TAPCELL_ROW_19_891
*32738 TAP_TAPCELL_ROW_19_892
*32739 TAP_TAPCELL_ROW_19_893
*32740 TAP_TAPCELL_ROW_19_894
*32741 TAP_TAPCELL_ROW_19_895
*32742 TAP_TAPCELL_ROW_1_469
*32743 TAP_TAPCELL_ROW_1_470
*32744 TAP_TAPCELL_ROW_1_471
*32745 TAP_TAPCELL_ROW_1_472
*32746 TAP_TAPCELL_ROW_1_473
*32747 TAP_TAPCELL_ROW_1_474
*32748 TAP_TAPCELL_ROW_1_475
*32749 TAP_TAPCELL_ROW_1_476
*32750 TAP_TAPCELL_ROW_1_477
*32751 TAP_TAPCELL_ROW_1_478
*32752 TAP_TAPCELL_ROW_1_479
*32753 TAP_TAPCELL_ROW_1_480
*32754 TAP_TAPCELL_ROW_1_481
*32755 TAP_TAPCELL_ROW_1_482
*32756 TAP_TAPCELL_ROW_1_483
*32757 TAP_TAPCELL_ROW_1_484
*32758 TAP_TAPCELL_ROW_1_485
*32759 TAP_TAPCELL_ROW_1_486
*32760 TAP_TAPCELL_ROW_1_487
*32761 TAP_TAPCELL_ROW_1_488
*32762 TAP_TAPCELL_ROW_1_489
*32763 TAP_TAPCELL_ROW_1_490
*32764 TAP_TAPCELL_ROW_200_4946
*32765 TAP_TAPCELL_ROW_200_4947
*32766 TAP_TAPCELL_ROW_200_4948
*32767 TAP_TAPCELL_ROW_200_4949
*32768 TAP_TAPCELL_ROW_200_4950
*32769 TAP_TAPCELL_ROW_200_4951
*32770 TAP_TAPCELL_ROW_200_4952
*32771 TAP_TAPCELL_ROW_200_4953
*32772 TAP_TAPCELL_ROW_200_4954
*32773 TAP_TAPCELL_ROW_200_4955
*32774 TAP_TAPCELL_ROW_200_4956
*32775 TAP_TAPCELL_ROW_200_4957
*32776 TAP_TAPCELL_ROW_200_4958
*32777 TAP_TAPCELL_ROW_200_4959
*32778 TAP_TAPCELL_ROW_200_4960
*32779 TAP_TAPCELL_ROW_200_4961
*32780 TAP_TAPCELL_ROW_200_4962
*32781 TAP_TAPCELL_ROW_200_4963
*32782 TAP_TAPCELL_ROW_200_4964
*32783 TAP_TAPCELL_ROW_200_4965
*32784 TAP_TAPCELL_ROW_200_4966
*32785 TAP_TAPCELL_ROW_200_4967
*32786 TAP_TAPCELL_ROW_200_4968
*32787 TAP_TAPCELL_ROW_201_4969
*32788 TAP_TAPCELL_ROW_201_4970
*32789 TAP_TAPCELL_ROW_201_4971
*32790 TAP_TAPCELL_ROW_201_4972
*32791 TAP_TAPCELL_ROW_201_4973
*32792 TAP_TAPCELL_ROW_201_4974
*32793 TAP_TAPCELL_ROW_201_4975
*32794 TAP_TAPCELL_ROW_201_4976
*32795 TAP_TAPCELL_ROW_201_4977
*32796 TAP_TAPCELL_ROW_201_4978
*32797 TAP_TAPCELL_ROW_201_4979
*32798 TAP_TAPCELL_ROW_201_4980
*32799 TAP_TAPCELL_ROW_201_4981
*32800 TAP_TAPCELL_ROW_201_4982
*32801 TAP_TAPCELL_ROW_201_4983
*32802 TAP_TAPCELL_ROW_201_4984
*32803 TAP_TAPCELL_ROW_201_4985
*32804 TAP_TAPCELL_ROW_201_4986
*32805 TAP_TAPCELL_ROW_201_4987
*32806 TAP_TAPCELL_ROW_201_4988
*32807 TAP_TAPCELL_ROW_201_4989
*32808 TAP_TAPCELL_ROW_201_4990
*32809 TAP_TAPCELL_ROW_202_4991
*32810 TAP_TAPCELL_ROW_202_4992
*32811 TAP_TAPCELL_ROW_202_4993
*32812 TAP_TAPCELL_ROW_202_4994
*32813 TAP_TAPCELL_ROW_202_4995
*32814 TAP_TAPCELL_ROW_202_4996
*32815 TAP_TAPCELL_ROW_202_4997
*32816 TAP_TAPCELL_ROW_202_4998
*32817 TAP_TAPCELL_ROW_202_4999
*32818 TAP_TAPCELL_ROW_202_5000
*32819 TAP_TAPCELL_ROW_202_5001
*32820 TAP_TAPCELL_ROW_202_5002
*32821 TAP_TAPCELL_ROW_202_5003
*32822 TAP_TAPCELL_ROW_202_5004
*32823 TAP_TAPCELL_ROW_202_5005
*32824 TAP_TAPCELL_ROW_202_5006
*32825 TAP_TAPCELL_ROW_202_5007
*32826 TAP_TAPCELL_ROW_202_5008
*32827 TAP_TAPCELL_ROW_202_5009
*32828 TAP_TAPCELL_ROW_202_5010
*32829 TAP_TAPCELL_ROW_202_5011
*32830 TAP_TAPCELL_ROW_202_5012
*32831 TAP_TAPCELL_ROW_202_5013
*32832 TAP_TAPCELL_ROW_203_5014
*32833 TAP_TAPCELL_ROW_203_5015
*32834 TAP_TAPCELL_ROW_203_5016
*32835 TAP_TAPCELL_ROW_203_5017
*32836 TAP_TAPCELL_ROW_203_5018
*32837 TAP_TAPCELL_ROW_203_5019
*32838 TAP_TAPCELL_ROW_203_5020
*32839 TAP_TAPCELL_ROW_203_5021
*32840 TAP_TAPCELL_ROW_203_5022
*32841 TAP_TAPCELL_ROW_203_5023
*32842 TAP_TAPCELL_ROW_203_5024
*32843 TAP_TAPCELL_ROW_203_5025
*32844 TAP_TAPCELL_ROW_203_5026
*32845 TAP_TAPCELL_ROW_203_5027
*32846 TAP_TAPCELL_ROW_203_5028
*32847 TAP_TAPCELL_ROW_203_5029
*32848 TAP_TAPCELL_ROW_203_5030
*32849 TAP_TAPCELL_ROW_203_5031
*32850 TAP_TAPCELL_ROW_203_5032
*32851 TAP_TAPCELL_ROW_203_5033
*32852 TAP_TAPCELL_ROW_203_5034
*32853 TAP_TAPCELL_ROW_203_5035
*32854 TAP_TAPCELL_ROW_204_5036
*32855 TAP_TAPCELL_ROW_204_5037
*32856 TAP_TAPCELL_ROW_204_5038
*32857 TAP_TAPCELL_ROW_204_5039
*32858 TAP_TAPCELL_ROW_204_5040
*32859 TAP_TAPCELL_ROW_204_5041
*32860 TAP_TAPCELL_ROW_204_5042
*32861 TAP_TAPCELL_ROW_204_5043
*32862 TAP_TAPCELL_ROW_204_5044
*32863 TAP_TAPCELL_ROW_204_5045
*32864 TAP_TAPCELL_ROW_204_5046
*32865 TAP_TAPCELL_ROW_204_5047
*32866 TAP_TAPCELL_ROW_204_5048
*32867 TAP_TAPCELL_ROW_204_5049
*32868 TAP_TAPCELL_ROW_204_5050
*32869 TAP_TAPCELL_ROW_204_5051
*32870 TAP_TAPCELL_ROW_204_5052
*32871 TAP_TAPCELL_ROW_204_5053
*32872 TAP_TAPCELL_ROW_204_5054
*32873 TAP_TAPCELL_ROW_204_5055
*32874 TAP_TAPCELL_ROW_204_5056
*32875 TAP_TAPCELL_ROW_204_5057
*32876 TAP_TAPCELL_ROW_204_5058
*32877 TAP_TAPCELL_ROW_205_5059
*32878 TAP_TAPCELL_ROW_205_5060
*32879 TAP_TAPCELL_ROW_205_5061
*32880 TAP_TAPCELL_ROW_205_5062
*32881 TAP_TAPCELL_ROW_205_5063
*32882 TAP_TAPCELL_ROW_205_5064
*32883 TAP_TAPCELL_ROW_205_5065
*32884 TAP_TAPCELL_ROW_205_5066
*32885 TAP_TAPCELL_ROW_205_5067
*32886 TAP_TAPCELL_ROW_205_5068
*32887 TAP_TAPCELL_ROW_205_5069
*32888 TAP_TAPCELL_ROW_205_5070
*32889 TAP_TAPCELL_ROW_205_5071
*32890 TAP_TAPCELL_ROW_205_5072
*32891 TAP_TAPCELL_ROW_205_5073
*32892 TAP_TAPCELL_ROW_205_5074
*32893 TAP_TAPCELL_ROW_205_5075
*32894 TAP_TAPCELL_ROW_205_5076
*32895 TAP_TAPCELL_ROW_205_5077
*32896 TAP_TAPCELL_ROW_205_5078
*32897 TAP_TAPCELL_ROW_205_5079
*32898 TAP_TAPCELL_ROW_205_5080
*32899 TAP_TAPCELL_ROW_206_5081
*32900 TAP_TAPCELL_ROW_206_5082
*32901 TAP_TAPCELL_ROW_206_5083
*32902 TAP_TAPCELL_ROW_206_5084
*32903 TAP_TAPCELL_ROW_206_5085
*32904 TAP_TAPCELL_ROW_206_5086
*32905 TAP_TAPCELL_ROW_206_5087
*32906 TAP_TAPCELL_ROW_206_5088
*32907 TAP_TAPCELL_ROW_206_5089
*32908 TAP_TAPCELL_ROW_206_5090
*32909 TAP_TAPCELL_ROW_206_5091
*32910 TAP_TAPCELL_ROW_206_5092
*32911 TAP_TAPCELL_ROW_206_5093
*32912 TAP_TAPCELL_ROW_206_5094
*32913 TAP_TAPCELL_ROW_206_5095
*32914 TAP_TAPCELL_ROW_206_5096
*32915 TAP_TAPCELL_ROW_206_5097
*32916 TAP_TAPCELL_ROW_206_5098
*32917 TAP_TAPCELL_ROW_206_5099
*32918 TAP_TAPCELL_ROW_206_5100
*32919 TAP_TAPCELL_ROW_206_5101
*32920 TAP_TAPCELL_ROW_206_5102
*32921 TAP_TAPCELL_ROW_206_5103
*32922 TAP_TAPCELL_ROW_207_5104
*32923 TAP_TAPCELL_ROW_207_5105
*32924 TAP_TAPCELL_ROW_207_5106
*32925 TAP_TAPCELL_ROW_207_5107
*32926 TAP_TAPCELL_ROW_207_5108
*32927 TAP_TAPCELL_ROW_207_5109
*32928 TAP_TAPCELL_ROW_207_5110
*32929 TAP_TAPCELL_ROW_207_5111
*32930 TAP_TAPCELL_ROW_207_5112
*32931 TAP_TAPCELL_ROW_207_5113
*32932 TAP_TAPCELL_ROW_207_5114
*32933 TAP_TAPCELL_ROW_207_5115
*32934 TAP_TAPCELL_ROW_207_5116
*32935 TAP_TAPCELL_ROW_207_5117
*32936 TAP_TAPCELL_ROW_207_5118
*32937 TAP_TAPCELL_ROW_207_5119
*32938 TAP_TAPCELL_ROW_207_5120
*32939 TAP_TAPCELL_ROW_207_5121
*32940 TAP_TAPCELL_ROW_207_5122
*32941 TAP_TAPCELL_ROW_207_5123
*32942 TAP_TAPCELL_ROW_207_5124
*32943 TAP_TAPCELL_ROW_207_5125
*32944 TAP_TAPCELL_ROW_208_5126
*32945 TAP_TAPCELL_ROW_208_5127
*32946 TAP_TAPCELL_ROW_208_5128
*32947 TAP_TAPCELL_ROW_208_5129
*32948 TAP_TAPCELL_ROW_208_5130
*32949 TAP_TAPCELL_ROW_208_5131
*32950 TAP_TAPCELL_ROW_208_5132
*32951 TAP_TAPCELL_ROW_208_5133
*32952 TAP_TAPCELL_ROW_208_5134
*32953 TAP_TAPCELL_ROW_208_5135
*32954 TAP_TAPCELL_ROW_208_5136
*32955 TAP_TAPCELL_ROW_208_5137
*32956 TAP_TAPCELL_ROW_208_5138
*32957 TAP_TAPCELL_ROW_208_5139
*32958 TAP_TAPCELL_ROW_208_5140
*32959 TAP_TAPCELL_ROW_208_5141
*32960 TAP_TAPCELL_ROW_208_5142
*32961 TAP_TAPCELL_ROW_208_5143
*32962 TAP_TAPCELL_ROW_208_5144
*32963 TAP_TAPCELL_ROW_208_5145
*32964 TAP_TAPCELL_ROW_208_5146
*32965 TAP_TAPCELL_ROW_208_5147
*32966 TAP_TAPCELL_ROW_208_5148
*32967 TAP_TAPCELL_ROW_209_5149
*32968 TAP_TAPCELL_ROW_209_5150
*32969 TAP_TAPCELL_ROW_209_5151
*32970 TAP_TAPCELL_ROW_209_5152
*32971 TAP_TAPCELL_ROW_209_5153
*32972 TAP_TAPCELL_ROW_209_5154
*32973 TAP_TAPCELL_ROW_209_5155
*32974 TAP_TAPCELL_ROW_209_5156
*32975 TAP_TAPCELL_ROW_209_5157
*32976 TAP_TAPCELL_ROW_209_5158
*32977 TAP_TAPCELL_ROW_209_5159
*32978 TAP_TAPCELL_ROW_209_5160
*32979 TAP_TAPCELL_ROW_209_5161
*32980 TAP_TAPCELL_ROW_209_5162
*32981 TAP_TAPCELL_ROW_209_5163
*32982 TAP_TAPCELL_ROW_209_5164
*32983 TAP_TAPCELL_ROW_209_5165
*32984 TAP_TAPCELL_ROW_209_5166
*32985 TAP_TAPCELL_ROW_209_5167
*32986 TAP_TAPCELL_ROW_209_5168
*32987 TAP_TAPCELL_ROW_209_5169
*32988 TAP_TAPCELL_ROW_209_5170
*32989 TAP_TAPCELL_ROW_20_896
*32990 TAP_TAPCELL_ROW_20_897
*32991 TAP_TAPCELL_ROW_20_898
*32992 TAP_TAPCELL_ROW_20_899
*32993 TAP_TAPCELL_ROW_20_900
*32994 TAP_TAPCELL_ROW_20_901
*32995 TAP_TAPCELL_ROW_20_902
*32996 TAP_TAPCELL_ROW_20_903
*32997 TAP_TAPCELL_ROW_20_904
*32998 TAP_TAPCELL_ROW_20_905
*32999 TAP_TAPCELL_ROW_20_906
*33000 TAP_TAPCELL_ROW_20_907
*33001 TAP_TAPCELL_ROW_20_908
*33002 TAP_TAPCELL_ROW_20_909
*33003 TAP_TAPCELL_ROW_20_910
*33004 TAP_TAPCELL_ROW_20_911
*33005 TAP_TAPCELL_ROW_20_912
*33006 TAP_TAPCELL_ROW_20_913
*33007 TAP_TAPCELL_ROW_20_914
*33008 TAP_TAPCELL_ROW_20_915
*33009 TAP_TAPCELL_ROW_20_916
*33010 TAP_TAPCELL_ROW_20_917
*33011 TAP_TAPCELL_ROW_20_918
*33012 TAP_TAPCELL_ROW_210_5171
*33013 TAP_TAPCELL_ROW_210_5172
*33014 TAP_TAPCELL_ROW_210_5173
*33015 TAP_TAPCELL_ROW_210_5174
*33016 TAP_TAPCELL_ROW_210_5175
*33017 TAP_TAPCELL_ROW_210_5176
*33018 TAP_TAPCELL_ROW_210_5177
*33019 TAP_TAPCELL_ROW_210_5178
*33020 TAP_TAPCELL_ROW_210_5179
*33021 TAP_TAPCELL_ROW_210_5180
*33022 TAP_TAPCELL_ROW_210_5181
*33023 TAP_TAPCELL_ROW_210_5182
*33024 TAP_TAPCELL_ROW_210_5183
*33025 TAP_TAPCELL_ROW_210_5184
*33026 TAP_TAPCELL_ROW_210_5185
*33027 TAP_TAPCELL_ROW_210_5186
*33028 TAP_TAPCELL_ROW_210_5187
*33029 TAP_TAPCELL_ROW_210_5188
*33030 TAP_TAPCELL_ROW_210_5189
*33031 TAP_TAPCELL_ROW_210_5190
*33032 TAP_TAPCELL_ROW_210_5191
*33033 TAP_TAPCELL_ROW_210_5192
*33034 TAP_TAPCELL_ROW_210_5193
*33035 TAP_TAPCELL_ROW_211_5194
*33036 TAP_TAPCELL_ROW_211_5195
*33037 TAP_TAPCELL_ROW_211_5196
*33038 TAP_TAPCELL_ROW_211_5197
*33039 TAP_TAPCELL_ROW_211_5198
*33040 TAP_TAPCELL_ROW_211_5199
*33041 TAP_TAPCELL_ROW_211_5200
*33042 TAP_TAPCELL_ROW_211_5201
*33043 TAP_TAPCELL_ROW_211_5202
*33044 TAP_TAPCELL_ROW_211_5203
*33045 TAP_TAPCELL_ROW_211_5204
*33046 TAP_TAPCELL_ROW_211_5205
*33047 TAP_TAPCELL_ROW_211_5206
*33048 TAP_TAPCELL_ROW_211_5207
*33049 TAP_TAPCELL_ROW_211_5208
*33050 TAP_TAPCELL_ROW_211_5209
*33051 TAP_TAPCELL_ROW_211_5210
*33052 TAP_TAPCELL_ROW_211_5211
*33053 TAP_TAPCELL_ROW_211_5212
*33054 TAP_TAPCELL_ROW_211_5213
*33055 TAP_TAPCELL_ROW_211_5214
*33056 TAP_TAPCELL_ROW_211_5215
*33057 TAP_TAPCELL_ROW_211_5216
*33058 TAP_TAPCELL_ROW_211_5217
*33059 TAP_TAPCELL_ROW_211_5218
*33060 TAP_TAPCELL_ROW_211_5219
*33061 TAP_TAPCELL_ROW_211_5220
*33062 TAP_TAPCELL_ROW_211_5221
*33063 TAP_TAPCELL_ROW_211_5222
*33064 TAP_TAPCELL_ROW_211_5223
*33065 TAP_TAPCELL_ROW_211_5224
*33066 TAP_TAPCELL_ROW_211_5225
*33067 TAP_TAPCELL_ROW_211_5226
*33068 TAP_TAPCELL_ROW_211_5227
*33069 TAP_TAPCELL_ROW_211_5228
*33070 TAP_TAPCELL_ROW_211_5229
*33071 TAP_TAPCELL_ROW_211_5230
*33072 TAP_TAPCELL_ROW_211_5231
*33073 TAP_TAPCELL_ROW_211_5232
*33074 TAP_TAPCELL_ROW_211_5233
*33075 TAP_TAPCELL_ROW_211_5234
*33076 TAP_TAPCELL_ROW_211_5235
*33077 TAP_TAPCELL_ROW_211_5236
*33078 TAP_TAPCELL_ROW_211_5237
*33079 TAP_TAPCELL_ROW_211_5238
*33080 TAP_TAPCELL_ROW_21_919
*33081 TAP_TAPCELL_ROW_21_920
*33082 TAP_TAPCELL_ROW_21_921
*33083 TAP_TAPCELL_ROW_21_922
*33084 TAP_TAPCELL_ROW_21_923
*33085 TAP_TAPCELL_ROW_21_924
*33086 TAP_TAPCELL_ROW_21_925
*33087 TAP_TAPCELL_ROW_21_926
*33088 TAP_TAPCELL_ROW_21_927
*33089 TAP_TAPCELL_ROW_21_928
*33090 TAP_TAPCELL_ROW_21_929
*33091 TAP_TAPCELL_ROW_21_930
*33092 TAP_TAPCELL_ROW_21_931
*33093 TAP_TAPCELL_ROW_21_932
*33094 TAP_TAPCELL_ROW_21_933
*33095 TAP_TAPCELL_ROW_21_934
*33096 TAP_TAPCELL_ROW_21_935
*33097 TAP_TAPCELL_ROW_21_936
*33098 TAP_TAPCELL_ROW_21_937
*33099 TAP_TAPCELL_ROW_21_938
*33100 TAP_TAPCELL_ROW_21_939
*33101 TAP_TAPCELL_ROW_21_940
*33102 TAP_TAPCELL_ROW_22_941
*33103 TAP_TAPCELL_ROW_22_942
*33104 TAP_TAPCELL_ROW_22_943
*33105 TAP_TAPCELL_ROW_22_944
*33106 TAP_TAPCELL_ROW_22_945
*33107 TAP_TAPCELL_ROW_22_946
*33108 TAP_TAPCELL_ROW_22_947
*33109 TAP_TAPCELL_ROW_22_948
*33110 TAP_TAPCELL_ROW_22_949
*33111 TAP_TAPCELL_ROW_22_950
*33112 TAP_TAPCELL_ROW_22_951
*33113 TAP_TAPCELL_ROW_22_952
*33114 TAP_TAPCELL_ROW_22_953
*33115 TAP_TAPCELL_ROW_22_954
*33116 TAP_TAPCELL_ROW_22_955
*33117 TAP_TAPCELL_ROW_22_956
*33118 TAP_TAPCELL_ROW_22_957
*33119 TAP_TAPCELL_ROW_22_958
*33120 TAP_TAPCELL_ROW_22_959
*33121 TAP_TAPCELL_ROW_22_960
*33122 TAP_TAPCELL_ROW_22_961
*33123 TAP_TAPCELL_ROW_22_962
*33124 TAP_TAPCELL_ROW_22_963
*33125 TAP_TAPCELL_ROW_23_964
*33126 TAP_TAPCELL_ROW_23_965
*33127 TAP_TAPCELL_ROW_23_966
*33128 TAP_TAPCELL_ROW_23_967
*33129 TAP_TAPCELL_ROW_23_968
*33130 TAP_TAPCELL_ROW_23_969
*33131 TAP_TAPCELL_ROW_23_970
*33132 TAP_TAPCELL_ROW_23_971
*33133 TAP_TAPCELL_ROW_23_972
*33134 TAP_TAPCELL_ROW_23_973
*33135 TAP_TAPCELL_ROW_23_974
*33136 TAP_TAPCELL_ROW_23_975
*33137 TAP_TAPCELL_ROW_23_976
*33138 TAP_TAPCELL_ROW_23_977
*33139 TAP_TAPCELL_ROW_23_978
*33140 TAP_TAPCELL_ROW_23_979
*33141 TAP_TAPCELL_ROW_23_980
*33142 TAP_TAPCELL_ROW_23_981
*33143 TAP_TAPCELL_ROW_23_982
*33144 TAP_TAPCELL_ROW_23_983
*33145 TAP_TAPCELL_ROW_23_984
*33146 TAP_TAPCELL_ROW_23_985
*33147 TAP_TAPCELL_ROW_24_1000
*33148 TAP_TAPCELL_ROW_24_1001
*33149 TAP_TAPCELL_ROW_24_1002
*33150 TAP_TAPCELL_ROW_24_1003
*33151 TAP_TAPCELL_ROW_24_1004
*33152 TAP_TAPCELL_ROW_24_1005
*33153 TAP_TAPCELL_ROW_24_1006
*33154 TAP_TAPCELL_ROW_24_1007
*33155 TAP_TAPCELL_ROW_24_1008
*33156 TAP_TAPCELL_ROW_24_986
*33157 TAP_TAPCELL_ROW_24_987
*33158 TAP_TAPCELL_ROW_24_988
*33159 TAP_TAPCELL_ROW_24_989
*33160 TAP_TAPCELL_ROW_24_990
*33161 TAP_TAPCELL_ROW_24_991
*33162 TAP_TAPCELL_ROW_24_992
*33163 TAP_TAPCELL_ROW_24_993
*33164 TAP_TAPCELL_ROW_24_994
*33165 TAP_TAPCELL_ROW_24_995
*33166 TAP_TAPCELL_ROW_24_996
*33167 TAP_TAPCELL_ROW_24_997
*33168 TAP_TAPCELL_ROW_24_998
*33169 TAP_TAPCELL_ROW_24_999
*33170 TAP_TAPCELL_ROW_25_1009
*33171 TAP_TAPCELL_ROW_25_1010
*33172 TAP_TAPCELL_ROW_25_1011
*33173 TAP_TAPCELL_ROW_25_1012
*33174 TAP_TAPCELL_ROW_25_1013
*33175 TAP_TAPCELL_ROW_25_1014
*33176 TAP_TAPCELL_ROW_25_1015
*33177 TAP_TAPCELL_ROW_25_1016
*33178 TAP_TAPCELL_ROW_25_1017
*33179 TAP_TAPCELL_ROW_25_1018
*33180 TAP_TAPCELL_ROW_25_1019
*33181 TAP_TAPCELL_ROW_25_1020
*33182 TAP_TAPCELL_ROW_25_1021
*33183 TAP_TAPCELL_ROW_25_1022
*33184 TAP_TAPCELL_ROW_25_1023
*33185 TAP_TAPCELL_ROW_25_1024
*33186 TAP_TAPCELL_ROW_25_1025
*33187 TAP_TAPCELL_ROW_25_1026
*33188 TAP_TAPCELL_ROW_25_1027
*33189 TAP_TAPCELL_ROW_25_1028
*33190 TAP_TAPCELL_ROW_25_1029
*33191 TAP_TAPCELL_ROW_25_1030
*33192 TAP_TAPCELL_ROW_26_1031
*33193 TAP_TAPCELL_ROW_26_1032
*33194 TAP_TAPCELL_ROW_26_1033
*33195 TAP_TAPCELL_ROW_26_1034
*33196 TAP_TAPCELL_ROW_26_1035
*33197 TAP_TAPCELL_ROW_26_1036
*33198 TAP_TAPCELL_ROW_26_1037
*33199 TAP_TAPCELL_ROW_26_1038
*33200 TAP_TAPCELL_ROW_26_1039
*33201 TAP_TAPCELL_ROW_26_1040
*33202 TAP_TAPCELL_ROW_26_1041
*33203 TAP_TAPCELL_ROW_26_1042
*33204 TAP_TAPCELL_ROW_26_1043
*33205 TAP_TAPCELL_ROW_26_1044
*33206 TAP_TAPCELL_ROW_26_1045
*33207 TAP_TAPCELL_ROW_26_1046
*33208 TAP_TAPCELL_ROW_26_1047
*33209 TAP_TAPCELL_ROW_26_1048
*33210 TAP_TAPCELL_ROW_26_1049
*33211 TAP_TAPCELL_ROW_26_1050
*33212 TAP_TAPCELL_ROW_26_1051
*33213 TAP_TAPCELL_ROW_26_1052
*33214 TAP_TAPCELL_ROW_26_1053
*33215 TAP_TAPCELL_ROW_27_1054
*33216 TAP_TAPCELL_ROW_27_1055
*33217 TAP_TAPCELL_ROW_27_1056
*33218 TAP_TAPCELL_ROW_27_1057
*33219 TAP_TAPCELL_ROW_27_1058
*33220 TAP_TAPCELL_ROW_27_1059
*33221 TAP_TAPCELL_ROW_27_1060
*33222 TAP_TAPCELL_ROW_27_1061
*33223 TAP_TAPCELL_ROW_27_1062
*33224 TAP_TAPCELL_ROW_27_1063
*33225 TAP_TAPCELL_ROW_27_1064
*33226 TAP_TAPCELL_ROW_27_1065
*33227 TAP_TAPCELL_ROW_27_1066
*33228 TAP_TAPCELL_ROW_27_1067
*33229 TAP_TAPCELL_ROW_27_1068
*33230 TAP_TAPCELL_ROW_27_1069
*33231 TAP_TAPCELL_ROW_27_1070
*33232 TAP_TAPCELL_ROW_27_1071
*33233 TAP_TAPCELL_ROW_27_1072
*33234 TAP_TAPCELL_ROW_27_1073
*33235 TAP_TAPCELL_ROW_27_1074
*33236 TAP_TAPCELL_ROW_27_1075
*33237 TAP_TAPCELL_ROW_28_1076
*33238 TAP_TAPCELL_ROW_28_1077
*33239 TAP_TAPCELL_ROW_28_1078
*33240 TAP_TAPCELL_ROW_28_1079
*33241 TAP_TAPCELL_ROW_28_1080
*33242 TAP_TAPCELL_ROW_28_1081
*33243 TAP_TAPCELL_ROW_28_1082
*33244 TAP_TAPCELL_ROW_28_1083
*33245 TAP_TAPCELL_ROW_28_1084
*33246 TAP_TAPCELL_ROW_28_1085
*33247 TAP_TAPCELL_ROW_28_1086
*33248 TAP_TAPCELL_ROW_28_1087
*33249 TAP_TAPCELL_ROW_28_1088
*33250 TAP_TAPCELL_ROW_28_1089
*33251 TAP_TAPCELL_ROW_28_1090
*33252 TAP_TAPCELL_ROW_28_1091
*33253 TAP_TAPCELL_ROW_28_1092
*33254 TAP_TAPCELL_ROW_28_1093
*33255 TAP_TAPCELL_ROW_28_1094
*33256 TAP_TAPCELL_ROW_28_1095
*33257 TAP_TAPCELL_ROW_28_1096
*33258 TAP_TAPCELL_ROW_28_1097
*33259 TAP_TAPCELL_ROW_28_1098
*33260 TAP_TAPCELL_ROW_29_1099
*33261 TAP_TAPCELL_ROW_29_1100
*33262 TAP_TAPCELL_ROW_29_1101
*33263 TAP_TAPCELL_ROW_29_1102
*33264 TAP_TAPCELL_ROW_29_1103
*33265 TAP_TAPCELL_ROW_29_1104
*33266 TAP_TAPCELL_ROW_29_1105
*33267 TAP_TAPCELL_ROW_29_1106
*33268 TAP_TAPCELL_ROW_29_1107
*33269 TAP_TAPCELL_ROW_29_1108
*33270 TAP_TAPCELL_ROW_29_1109
*33271 TAP_TAPCELL_ROW_29_1110
*33272 TAP_TAPCELL_ROW_29_1111
*33273 TAP_TAPCELL_ROW_29_1112
*33274 TAP_TAPCELL_ROW_29_1113
*33275 TAP_TAPCELL_ROW_29_1114
*33276 TAP_TAPCELL_ROW_29_1115
*33277 TAP_TAPCELL_ROW_29_1116
*33278 TAP_TAPCELL_ROW_29_1117
*33279 TAP_TAPCELL_ROW_29_1118
*33280 TAP_TAPCELL_ROW_29_1119
*33281 TAP_TAPCELL_ROW_29_1120
*33282 TAP_TAPCELL_ROW_2_491
*33283 TAP_TAPCELL_ROW_2_492
*33284 TAP_TAPCELL_ROW_2_493
*33285 TAP_TAPCELL_ROW_2_494
*33286 TAP_TAPCELL_ROW_2_495
*33287 TAP_TAPCELL_ROW_2_496
*33288 TAP_TAPCELL_ROW_2_497
*33289 TAP_TAPCELL_ROW_2_498
*33290 TAP_TAPCELL_ROW_2_499
*33291 TAP_TAPCELL_ROW_2_500
*33292 TAP_TAPCELL_ROW_2_501
*33293 TAP_TAPCELL_ROW_2_502
*33294 TAP_TAPCELL_ROW_2_503
*33295 TAP_TAPCELL_ROW_2_504
*33296 TAP_TAPCELL_ROW_2_505
*33297 TAP_TAPCELL_ROW_2_506
*33298 TAP_TAPCELL_ROW_2_507
*33299 TAP_TAPCELL_ROW_2_508
*33300 TAP_TAPCELL_ROW_2_509
*33301 TAP_TAPCELL_ROW_2_510
*33302 TAP_TAPCELL_ROW_2_511
*33303 TAP_TAPCELL_ROW_2_512
*33304 TAP_TAPCELL_ROW_2_513
*33305 TAP_TAPCELL_ROW_30_1121
*33306 TAP_TAPCELL_ROW_30_1122
*33307 TAP_TAPCELL_ROW_30_1123
*33308 TAP_TAPCELL_ROW_30_1124
*33309 TAP_TAPCELL_ROW_30_1125
*33310 TAP_TAPCELL_ROW_30_1126
*33311 TAP_TAPCELL_ROW_30_1127
*33312 TAP_TAPCELL_ROW_30_1128
*33313 TAP_TAPCELL_ROW_30_1129
*33314 TAP_TAPCELL_ROW_30_1130
*33315 TAP_TAPCELL_ROW_30_1131
*33316 TAP_TAPCELL_ROW_30_1132
*33317 TAP_TAPCELL_ROW_30_1133
*33318 TAP_TAPCELL_ROW_30_1134
*33319 TAP_TAPCELL_ROW_30_1135
*33320 TAP_TAPCELL_ROW_30_1136
*33321 TAP_TAPCELL_ROW_30_1137
*33322 TAP_TAPCELL_ROW_30_1138
*33323 TAP_TAPCELL_ROW_30_1139
*33324 TAP_TAPCELL_ROW_30_1140
*33325 TAP_TAPCELL_ROW_30_1141
*33326 TAP_TAPCELL_ROW_30_1142
*33327 TAP_TAPCELL_ROW_30_1143
*33328 TAP_TAPCELL_ROW_31_1144
*33329 TAP_TAPCELL_ROW_31_1145
*33330 TAP_TAPCELL_ROW_31_1146
*33331 TAP_TAPCELL_ROW_31_1147
*33332 TAP_TAPCELL_ROW_31_1148
*33333 TAP_TAPCELL_ROW_31_1149
*33334 TAP_TAPCELL_ROW_31_1150
*33335 TAP_TAPCELL_ROW_31_1151
*33336 TAP_TAPCELL_ROW_31_1152
*33337 TAP_TAPCELL_ROW_31_1153
*33338 TAP_TAPCELL_ROW_31_1154
*33339 TAP_TAPCELL_ROW_31_1155
*33340 TAP_TAPCELL_ROW_31_1156
*33341 TAP_TAPCELL_ROW_31_1157
*33342 TAP_TAPCELL_ROW_31_1158
*33343 TAP_TAPCELL_ROW_31_1159
*33344 TAP_TAPCELL_ROW_31_1160
*33345 TAP_TAPCELL_ROW_31_1161
*33346 TAP_TAPCELL_ROW_31_1162
*33347 TAP_TAPCELL_ROW_31_1163
*33348 TAP_TAPCELL_ROW_31_1164
*33349 TAP_TAPCELL_ROW_31_1165
*33350 TAP_TAPCELL_ROW_32_1166
*33351 TAP_TAPCELL_ROW_32_1167
*33352 TAP_TAPCELL_ROW_32_1168
*33353 TAP_TAPCELL_ROW_32_1169
*33354 TAP_TAPCELL_ROW_32_1170
*33355 TAP_TAPCELL_ROW_32_1171
*33356 TAP_TAPCELL_ROW_32_1172
*33357 TAP_TAPCELL_ROW_32_1173
*33358 TAP_TAPCELL_ROW_32_1174
*33359 TAP_TAPCELL_ROW_32_1175
*33360 TAP_TAPCELL_ROW_32_1176
*33361 TAP_TAPCELL_ROW_32_1177
*33362 TAP_TAPCELL_ROW_32_1178
*33363 TAP_TAPCELL_ROW_32_1179
*33364 TAP_TAPCELL_ROW_32_1180
*33365 TAP_TAPCELL_ROW_32_1181
*33366 TAP_TAPCELL_ROW_32_1182
*33367 TAP_TAPCELL_ROW_32_1183
*33368 TAP_TAPCELL_ROW_32_1184
*33369 TAP_TAPCELL_ROW_32_1185
*33370 TAP_TAPCELL_ROW_32_1186
*33371 TAP_TAPCELL_ROW_32_1187
*33372 TAP_TAPCELL_ROW_32_1188
*33373 TAP_TAPCELL_ROW_33_1189
*33374 TAP_TAPCELL_ROW_33_1190
*33375 TAP_TAPCELL_ROW_33_1191
*33376 TAP_TAPCELL_ROW_33_1192
*33377 TAP_TAPCELL_ROW_33_1193
*33378 TAP_TAPCELL_ROW_33_1194
*33379 TAP_TAPCELL_ROW_33_1195
*33380 TAP_TAPCELL_ROW_33_1196
*33381 TAP_TAPCELL_ROW_33_1197
*33382 TAP_TAPCELL_ROW_33_1198
*33383 TAP_TAPCELL_ROW_33_1199
*33384 TAP_TAPCELL_ROW_33_1200
*33385 TAP_TAPCELL_ROW_33_1201
*33386 TAP_TAPCELL_ROW_33_1202
*33387 TAP_TAPCELL_ROW_33_1203
*33388 TAP_TAPCELL_ROW_33_1204
*33389 TAP_TAPCELL_ROW_33_1205
*33390 TAP_TAPCELL_ROW_33_1206
*33391 TAP_TAPCELL_ROW_33_1207
*33392 TAP_TAPCELL_ROW_33_1208
*33393 TAP_TAPCELL_ROW_33_1209
*33394 TAP_TAPCELL_ROW_33_1210
*33395 TAP_TAPCELL_ROW_34_1211
*33396 TAP_TAPCELL_ROW_34_1212
*33397 TAP_TAPCELL_ROW_34_1213
*33398 TAP_TAPCELL_ROW_34_1214
*33399 TAP_TAPCELL_ROW_34_1215
*33400 TAP_TAPCELL_ROW_34_1216
*33401 TAP_TAPCELL_ROW_34_1217
*33402 TAP_TAPCELL_ROW_34_1218
*33403 TAP_TAPCELL_ROW_34_1219
*33404 TAP_TAPCELL_ROW_34_1220
*33405 TAP_TAPCELL_ROW_34_1221
*33406 TAP_TAPCELL_ROW_34_1222
*33407 TAP_TAPCELL_ROW_34_1223
*33408 TAP_TAPCELL_ROW_34_1224
*33409 TAP_TAPCELL_ROW_34_1225
*33410 TAP_TAPCELL_ROW_34_1226
*33411 TAP_TAPCELL_ROW_34_1227
*33412 TAP_TAPCELL_ROW_34_1228
*33413 TAP_TAPCELL_ROW_34_1229
*33414 TAP_TAPCELL_ROW_34_1230
*33415 TAP_TAPCELL_ROW_34_1231
*33416 TAP_TAPCELL_ROW_34_1232
*33417 TAP_TAPCELL_ROW_34_1233
*33418 TAP_TAPCELL_ROW_35_1234
*33419 TAP_TAPCELL_ROW_35_1235
*33420 TAP_TAPCELL_ROW_35_1236
*33421 TAP_TAPCELL_ROW_35_1237
*33422 TAP_TAPCELL_ROW_35_1238
*33423 TAP_TAPCELL_ROW_35_1239
*33424 TAP_TAPCELL_ROW_35_1240
*33425 TAP_TAPCELL_ROW_35_1241
*33426 TAP_TAPCELL_ROW_35_1242
*33427 TAP_TAPCELL_ROW_35_1243
*33428 TAP_TAPCELL_ROW_35_1244
*33429 TAP_TAPCELL_ROW_35_1245
*33430 TAP_TAPCELL_ROW_35_1246
*33431 TAP_TAPCELL_ROW_35_1247
*33432 TAP_TAPCELL_ROW_35_1248
*33433 TAP_TAPCELL_ROW_35_1249
*33434 TAP_TAPCELL_ROW_35_1250
*33435 TAP_TAPCELL_ROW_35_1251
*33436 TAP_TAPCELL_ROW_35_1252
*33437 TAP_TAPCELL_ROW_35_1253
*33438 TAP_TAPCELL_ROW_35_1254
*33439 TAP_TAPCELL_ROW_35_1255
*33440 TAP_TAPCELL_ROW_36_1256
*33441 TAP_TAPCELL_ROW_36_1257
*33442 TAP_TAPCELL_ROW_36_1258
*33443 TAP_TAPCELL_ROW_36_1259
*33444 TAP_TAPCELL_ROW_36_1260
*33445 TAP_TAPCELL_ROW_36_1261
*33446 TAP_TAPCELL_ROW_36_1262
*33447 TAP_TAPCELL_ROW_36_1263
*33448 TAP_TAPCELL_ROW_36_1264
*33449 TAP_TAPCELL_ROW_36_1265
*33450 TAP_TAPCELL_ROW_36_1266
*33451 TAP_TAPCELL_ROW_36_1267
*33452 TAP_TAPCELL_ROW_36_1268
*33453 TAP_TAPCELL_ROW_36_1269
*33454 TAP_TAPCELL_ROW_36_1270
*33455 TAP_TAPCELL_ROW_36_1271
*33456 TAP_TAPCELL_ROW_36_1272
*33457 TAP_TAPCELL_ROW_36_1273
*33458 TAP_TAPCELL_ROW_36_1274
*33459 TAP_TAPCELL_ROW_36_1275
*33460 TAP_TAPCELL_ROW_36_1276
*33461 TAP_TAPCELL_ROW_36_1277
*33462 TAP_TAPCELL_ROW_36_1278
*33463 TAP_TAPCELL_ROW_37_1279
*33464 TAP_TAPCELL_ROW_37_1280
*33465 TAP_TAPCELL_ROW_37_1281
*33466 TAP_TAPCELL_ROW_37_1282
*33467 TAP_TAPCELL_ROW_37_1283
*33468 TAP_TAPCELL_ROW_37_1284
*33469 TAP_TAPCELL_ROW_37_1285
*33470 TAP_TAPCELL_ROW_37_1286
*33471 TAP_TAPCELL_ROW_37_1287
*33472 TAP_TAPCELL_ROW_37_1288
*33473 TAP_TAPCELL_ROW_37_1289
*33474 TAP_TAPCELL_ROW_37_1290
*33475 TAP_TAPCELL_ROW_37_1291
*33476 TAP_TAPCELL_ROW_37_1292
*33477 TAP_TAPCELL_ROW_37_1293
*33478 TAP_TAPCELL_ROW_37_1294
*33479 TAP_TAPCELL_ROW_37_1295
*33480 TAP_TAPCELL_ROW_37_1296
*33481 TAP_TAPCELL_ROW_37_1297
*33482 TAP_TAPCELL_ROW_37_1298
*33483 TAP_TAPCELL_ROW_37_1299
*33484 TAP_TAPCELL_ROW_37_1300
*33485 TAP_TAPCELL_ROW_38_1301
*33486 TAP_TAPCELL_ROW_38_1302
*33487 TAP_TAPCELL_ROW_38_1303
*33488 TAP_TAPCELL_ROW_38_1304
*33489 TAP_TAPCELL_ROW_38_1305
*33490 TAP_TAPCELL_ROW_38_1306
*33491 TAP_TAPCELL_ROW_38_1307
*33492 TAP_TAPCELL_ROW_38_1308
*33493 TAP_TAPCELL_ROW_38_1309
*33494 TAP_TAPCELL_ROW_38_1310
*33495 TAP_TAPCELL_ROW_38_1311
*33496 TAP_TAPCELL_ROW_38_1312
*33497 TAP_TAPCELL_ROW_38_1313
*33498 TAP_TAPCELL_ROW_38_1314
*33499 TAP_TAPCELL_ROW_38_1315
*33500 TAP_TAPCELL_ROW_38_1316
*33501 TAP_TAPCELL_ROW_38_1317
*33502 TAP_TAPCELL_ROW_38_1318
*33503 TAP_TAPCELL_ROW_38_1319
*33504 TAP_TAPCELL_ROW_38_1320
*33505 TAP_TAPCELL_ROW_38_1321
*33506 TAP_TAPCELL_ROW_38_1322
*33507 TAP_TAPCELL_ROW_38_1323
*33508 TAP_TAPCELL_ROW_39_1324
*33509 TAP_TAPCELL_ROW_39_1325
*33510 TAP_TAPCELL_ROW_39_1326
*33511 TAP_TAPCELL_ROW_39_1327
*33512 TAP_TAPCELL_ROW_39_1328
*33513 TAP_TAPCELL_ROW_39_1329
*33514 TAP_TAPCELL_ROW_39_1330
*33515 TAP_TAPCELL_ROW_39_1331
*33516 TAP_TAPCELL_ROW_39_1332
*33517 TAP_TAPCELL_ROW_39_1333
*33518 TAP_TAPCELL_ROW_39_1334
*33519 TAP_TAPCELL_ROW_39_1335
*33520 TAP_TAPCELL_ROW_39_1336
*33521 TAP_TAPCELL_ROW_39_1337
*33522 TAP_TAPCELL_ROW_39_1338
*33523 TAP_TAPCELL_ROW_39_1339
*33524 TAP_TAPCELL_ROW_39_1340
*33525 TAP_TAPCELL_ROW_39_1341
*33526 TAP_TAPCELL_ROW_39_1342
*33527 TAP_TAPCELL_ROW_39_1343
*33528 TAP_TAPCELL_ROW_39_1344
*33529 TAP_TAPCELL_ROW_39_1345
*33530 TAP_TAPCELL_ROW_3_514
*33531 TAP_TAPCELL_ROW_3_515
*33532 TAP_TAPCELL_ROW_3_516
*33533 TAP_TAPCELL_ROW_3_517
*33534 TAP_TAPCELL_ROW_3_518
*33535 TAP_TAPCELL_ROW_3_519
*33536 TAP_TAPCELL_ROW_3_520
*33537 TAP_TAPCELL_ROW_3_521
*33538 TAP_TAPCELL_ROW_3_522
*33539 TAP_TAPCELL_ROW_3_523
*33540 TAP_TAPCELL_ROW_3_524
*33541 TAP_TAPCELL_ROW_3_525
*33542 TAP_TAPCELL_ROW_3_526
*33543 TAP_TAPCELL_ROW_3_527
*33544 TAP_TAPCELL_ROW_3_528
*33545 TAP_TAPCELL_ROW_3_529
*33546 TAP_TAPCELL_ROW_3_530
*33547 TAP_TAPCELL_ROW_3_531
*33548 TAP_TAPCELL_ROW_3_532
*33549 TAP_TAPCELL_ROW_3_533
*33550 TAP_TAPCELL_ROW_3_534
*33551 TAP_TAPCELL_ROW_3_535
*33552 TAP_TAPCELL_ROW_40_1346
*33553 TAP_TAPCELL_ROW_40_1347
*33554 TAP_TAPCELL_ROW_40_1348
*33555 TAP_TAPCELL_ROW_40_1349
*33556 TAP_TAPCELL_ROW_40_1350
*33557 TAP_TAPCELL_ROW_40_1351
*33558 TAP_TAPCELL_ROW_40_1352
*33559 TAP_TAPCELL_ROW_40_1353
*33560 TAP_TAPCELL_ROW_40_1354
*33561 TAP_TAPCELL_ROW_40_1355
*33562 TAP_TAPCELL_ROW_40_1356
*33563 TAP_TAPCELL_ROW_40_1357
*33564 TAP_TAPCELL_ROW_40_1358
*33565 TAP_TAPCELL_ROW_40_1359
*33566 TAP_TAPCELL_ROW_40_1360
*33567 TAP_TAPCELL_ROW_40_1361
*33568 TAP_TAPCELL_ROW_40_1362
*33569 TAP_TAPCELL_ROW_40_1363
*33570 TAP_TAPCELL_ROW_40_1364
*33571 TAP_TAPCELL_ROW_40_1365
*33572 TAP_TAPCELL_ROW_40_1366
*33573 TAP_TAPCELL_ROW_40_1367
*33574 TAP_TAPCELL_ROW_40_1368
*33575 TAP_TAPCELL_ROW_41_1369
*33576 TAP_TAPCELL_ROW_41_1370
*33577 TAP_TAPCELL_ROW_41_1371
*33578 TAP_TAPCELL_ROW_41_1372
*33579 TAP_TAPCELL_ROW_41_1373
*33580 TAP_TAPCELL_ROW_41_1374
*33581 TAP_TAPCELL_ROW_41_1375
*33582 TAP_TAPCELL_ROW_41_1376
*33583 TAP_TAPCELL_ROW_41_1377
*33584 TAP_TAPCELL_ROW_41_1378
*33585 TAP_TAPCELL_ROW_41_1379
*33586 TAP_TAPCELL_ROW_41_1380
*33587 TAP_TAPCELL_ROW_41_1381
*33588 TAP_TAPCELL_ROW_41_1382
*33589 TAP_TAPCELL_ROW_41_1383
*33590 TAP_TAPCELL_ROW_41_1384
*33591 TAP_TAPCELL_ROW_41_1385
*33592 TAP_TAPCELL_ROW_41_1386
*33593 TAP_TAPCELL_ROW_41_1387
*33594 TAP_TAPCELL_ROW_41_1388
*33595 TAP_TAPCELL_ROW_41_1389
*33596 TAP_TAPCELL_ROW_41_1390
*33597 TAP_TAPCELL_ROW_42_1391
*33598 TAP_TAPCELL_ROW_42_1392
*33599 TAP_TAPCELL_ROW_42_1393
*33600 TAP_TAPCELL_ROW_42_1394
*33601 TAP_TAPCELL_ROW_42_1395
*33602 TAP_TAPCELL_ROW_42_1396
*33603 TAP_TAPCELL_ROW_42_1397
*33604 TAP_TAPCELL_ROW_42_1398
*33605 TAP_TAPCELL_ROW_42_1399
*33606 TAP_TAPCELL_ROW_42_1400
*33607 TAP_TAPCELL_ROW_42_1401
*33608 TAP_TAPCELL_ROW_42_1402
*33609 TAP_TAPCELL_ROW_42_1403
*33610 TAP_TAPCELL_ROW_42_1404
*33611 TAP_TAPCELL_ROW_42_1405
*33612 TAP_TAPCELL_ROW_42_1406
*33613 TAP_TAPCELL_ROW_42_1407
*33614 TAP_TAPCELL_ROW_42_1408
*33615 TAP_TAPCELL_ROW_42_1409
*33616 TAP_TAPCELL_ROW_42_1410
*33617 TAP_TAPCELL_ROW_42_1411
*33618 TAP_TAPCELL_ROW_42_1412
*33619 TAP_TAPCELL_ROW_42_1413
*33620 TAP_TAPCELL_ROW_43_1414
*33621 TAP_TAPCELL_ROW_43_1415
*33622 TAP_TAPCELL_ROW_43_1416
*33623 TAP_TAPCELL_ROW_43_1417
*33624 TAP_TAPCELL_ROW_43_1418
*33625 TAP_TAPCELL_ROW_43_1419
*33626 TAP_TAPCELL_ROW_43_1420
*33627 TAP_TAPCELL_ROW_43_1421
*33628 TAP_TAPCELL_ROW_43_1422
*33629 TAP_TAPCELL_ROW_43_1423
*33630 TAP_TAPCELL_ROW_43_1424
*33631 TAP_TAPCELL_ROW_43_1425
*33632 TAP_TAPCELL_ROW_43_1426
*33633 TAP_TAPCELL_ROW_43_1427
*33634 TAP_TAPCELL_ROW_43_1428
*33635 TAP_TAPCELL_ROW_43_1429
*33636 TAP_TAPCELL_ROW_43_1430
*33637 TAP_TAPCELL_ROW_43_1431
*33638 TAP_TAPCELL_ROW_43_1432
*33639 TAP_TAPCELL_ROW_43_1433
*33640 TAP_TAPCELL_ROW_43_1434
*33641 TAP_TAPCELL_ROW_43_1435
*33642 TAP_TAPCELL_ROW_44_1436
*33643 TAP_TAPCELL_ROW_44_1437
*33644 TAP_TAPCELL_ROW_44_1438
*33645 TAP_TAPCELL_ROW_44_1439
*33646 TAP_TAPCELL_ROW_44_1440
*33647 TAP_TAPCELL_ROW_44_1441
*33648 TAP_TAPCELL_ROW_44_1442
*33649 TAP_TAPCELL_ROW_44_1443
*33650 TAP_TAPCELL_ROW_44_1444
*33651 TAP_TAPCELL_ROW_44_1445
*33652 TAP_TAPCELL_ROW_44_1446
*33653 TAP_TAPCELL_ROW_44_1447
*33654 TAP_TAPCELL_ROW_44_1448
*33655 TAP_TAPCELL_ROW_44_1449
*33656 TAP_TAPCELL_ROW_44_1450
*33657 TAP_TAPCELL_ROW_44_1451
*33658 TAP_TAPCELL_ROW_44_1452
*33659 TAP_TAPCELL_ROW_44_1453
*33660 TAP_TAPCELL_ROW_44_1454
*33661 TAP_TAPCELL_ROW_44_1455
*33662 TAP_TAPCELL_ROW_44_1456
*33663 TAP_TAPCELL_ROW_44_1457
*33664 TAP_TAPCELL_ROW_44_1458
*33665 TAP_TAPCELL_ROW_45_1459
*33666 TAP_TAPCELL_ROW_45_1460
*33667 TAP_TAPCELL_ROW_45_1461
*33668 TAP_TAPCELL_ROW_45_1462
*33669 TAP_TAPCELL_ROW_45_1463
*33670 TAP_TAPCELL_ROW_45_1464
*33671 TAP_TAPCELL_ROW_45_1465
*33672 TAP_TAPCELL_ROW_45_1466
*33673 TAP_TAPCELL_ROW_45_1467
*33674 TAP_TAPCELL_ROW_45_1468
*33675 TAP_TAPCELL_ROW_45_1469
*33676 TAP_TAPCELL_ROW_45_1470
*33677 TAP_TAPCELL_ROW_45_1471
*33678 TAP_TAPCELL_ROW_45_1472
*33679 TAP_TAPCELL_ROW_45_1473
*33680 TAP_TAPCELL_ROW_45_1474
*33681 TAP_TAPCELL_ROW_45_1475
*33682 TAP_TAPCELL_ROW_45_1476
*33683 TAP_TAPCELL_ROW_45_1477
*33684 TAP_TAPCELL_ROW_45_1478
*33685 TAP_TAPCELL_ROW_45_1479
*33686 TAP_TAPCELL_ROW_45_1480
*33687 TAP_TAPCELL_ROW_46_1481
*33688 TAP_TAPCELL_ROW_46_1482
*33689 TAP_TAPCELL_ROW_46_1483
*33690 TAP_TAPCELL_ROW_46_1484
*33691 TAP_TAPCELL_ROW_46_1485
*33692 TAP_TAPCELL_ROW_46_1486
*33693 TAP_TAPCELL_ROW_46_1487
*33694 TAP_TAPCELL_ROW_46_1488
*33695 TAP_TAPCELL_ROW_46_1489
*33696 TAP_TAPCELL_ROW_46_1490
*33697 TAP_TAPCELL_ROW_46_1491
*33698 TAP_TAPCELL_ROW_46_1492
*33699 TAP_TAPCELL_ROW_46_1493
*33700 TAP_TAPCELL_ROW_46_1494
*33701 TAP_TAPCELL_ROW_46_1495
*33702 TAP_TAPCELL_ROW_46_1496
*33703 TAP_TAPCELL_ROW_46_1497
*33704 TAP_TAPCELL_ROW_46_1498
*33705 TAP_TAPCELL_ROW_46_1499
*33706 TAP_TAPCELL_ROW_46_1500
*33707 TAP_TAPCELL_ROW_46_1501
*33708 TAP_TAPCELL_ROW_46_1502
*33709 TAP_TAPCELL_ROW_46_1503
*33710 TAP_TAPCELL_ROW_47_1504
*33711 TAP_TAPCELL_ROW_47_1505
*33712 TAP_TAPCELL_ROW_47_1506
*33713 TAP_TAPCELL_ROW_47_1507
*33714 TAP_TAPCELL_ROW_47_1508
*33715 TAP_TAPCELL_ROW_47_1509
*33716 TAP_TAPCELL_ROW_47_1510
*33717 TAP_TAPCELL_ROW_47_1511
*33718 TAP_TAPCELL_ROW_47_1512
*33719 TAP_TAPCELL_ROW_47_1513
*33720 TAP_TAPCELL_ROW_47_1514
*33721 TAP_TAPCELL_ROW_47_1515
*33722 TAP_TAPCELL_ROW_47_1516
*33723 TAP_TAPCELL_ROW_47_1517
*33724 TAP_TAPCELL_ROW_47_1518
*33725 TAP_TAPCELL_ROW_47_1519
*33726 TAP_TAPCELL_ROW_47_1520
*33727 TAP_TAPCELL_ROW_47_1521
*33728 TAP_TAPCELL_ROW_47_1522
*33729 TAP_TAPCELL_ROW_47_1523
*33730 TAP_TAPCELL_ROW_47_1524
*33731 TAP_TAPCELL_ROW_47_1525
*33732 TAP_TAPCELL_ROW_48_1526
*33733 TAP_TAPCELL_ROW_48_1527
*33734 TAP_TAPCELL_ROW_48_1528
*33735 TAP_TAPCELL_ROW_48_1529
*33736 TAP_TAPCELL_ROW_48_1530
*33737 TAP_TAPCELL_ROW_48_1531
*33738 TAP_TAPCELL_ROW_48_1532
*33739 TAP_TAPCELL_ROW_48_1533
*33740 TAP_TAPCELL_ROW_48_1534
*33741 TAP_TAPCELL_ROW_48_1535
*33742 TAP_TAPCELL_ROW_48_1536
*33743 TAP_TAPCELL_ROW_48_1537
*33744 TAP_TAPCELL_ROW_48_1538
*33745 TAP_TAPCELL_ROW_48_1539
*33746 TAP_TAPCELL_ROW_48_1540
*33747 TAP_TAPCELL_ROW_48_1541
*33748 TAP_TAPCELL_ROW_48_1542
*33749 TAP_TAPCELL_ROW_48_1543
*33750 TAP_TAPCELL_ROW_48_1544
*33751 TAP_TAPCELL_ROW_48_1545
*33752 TAP_TAPCELL_ROW_48_1546
*33753 TAP_TAPCELL_ROW_48_1547
*33754 TAP_TAPCELL_ROW_48_1548
*33755 TAP_TAPCELL_ROW_49_1549
*33756 TAP_TAPCELL_ROW_49_1550
*33757 TAP_TAPCELL_ROW_49_1551
*33758 TAP_TAPCELL_ROW_49_1552
*33759 TAP_TAPCELL_ROW_49_1553
*33760 TAP_TAPCELL_ROW_49_1554
*33761 TAP_TAPCELL_ROW_49_1555
*33762 TAP_TAPCELL_ROW_49_1556
*33763 TAP_TAPCELL_ROW_49_1557
*33764 TAP_TAPCELL_ROW_49_1558
*33765 TAP_TAPCELL_ROW_49_1559
*33766 TAP_TAPCELL_ROW_49_1560
*33767 TAP_TAPCELL_ROW_49_1561
*33768 TAP_TAPCELL_ROW_49_1562
*33769 TAP_TAPCELL_ROW_49_1563
*33770 TAP_TAPCELL_ROW_49_1564
*33771 TAP_TAPCELL_ROW_49_1565
*33772 TAP_TAPCELL_ROW_49_1566
*33773 TAP_TAPCELL_ROW_49_1567
*33774 TAP_TAPCELL_ROW_49_1568
*33775 TAP_TAPCELL_ROW_49_1569
*33776 TAP_TAPCELL_ROW_49_1570
*33777 TAP_TAPCELL_ROW_4_536
*33778 TAP_TAPCELL_ROW_4_537
*33779 TAP_TAPCELL_ROW_4_538
*33780 TAP_TAPCELL_ROW_4_539
*33781 TAP_TAPCELL_ROW_4_540
*33782 TAP_TAPCELL_ROW_4_541
*33783 TAP_TAPCELL_ROW_4_542
*33784 TAP_TAPCELL_ROW_4_543
*33785 TAP_TAPCELL_ROW_4_544
*33786 TAP_TAPCELL_ROW_4_545
*33787 TAP_TAPCELL_ROW_4_546
*33788 TAP_TAPCELL_ROW_4_547
*33789 TAP_TAPCELL_ROW_4_548
*33790 TAP_TAPCELL_ROW_4_549
*33791 TAP_TAPCELL_ROW_4_550
*33792 TAP_TAPCELL_ROW_4_551
*33793 TAP_TAPCELL_ROW_4_552
*33794 TAP_TAPCELL_ROW_4_553
*33795 TAP_TAPCELL_ROW_4_554
*33796 TAP_TAPCELL_ROW_4_555
*33797 TAP_TAPCELL_ROW_4_556
*33798 TAP_TAPCELL_ROW_4_557
*33799 TAP_TAPCELL_ROW_4_558
*33800 TAP_TAPCELL_ROW_50_1571
*33801 TAP_TAPCELL_ROW_50_1572
*33802 TAP_TAPCELL_ROW_50_1573
*33803 TAP_TAPCELL_ROW_50_1574
*33804 TAP_TAPCELL_ROW_50_1575
*33805 TAP_TAPCELL_ROW_50_1576
*33806 TAP_TAPCELL_ROW_50_1577
*33807 TAP_TAPCELL_ROW_50_1578
*33808 TAP_TAPCELL_ROW_50_1579
*33809 TAP_TAPCELL_ROW_50_1580
*33810 TAP_TAPCELL_ROW_50_1581
*33811 TAP_TAPCELL_ROW_50_1582
*33812 TAP_TAPCELL_ROW_50_1583
*33813 TAP_TAPCELL_ROW_50_1584
*33814 TAP_TAPCELL_ROW_50_1585
*33815 TAP_TAPCELL_ROW_50_1586
*33816 TAP_TAPCELL_ROW_50_1587
*33817 TAP_TAPCELL_ROW_50_1588
*33818 TAP_TAPCELL_ROW_50_1589
*33819 TAP_TAPCELL_ROW_50_1590
*33820 TAP_TAPCELL_ROW_50_1591
*33821 TAP_TAPCELL_ROW_50_1592
*33822 TAP_TAPCELL_ROW_50_1593
*33823 TAP_TAPCELL_ROW_51_1594
*33824 TAP_TAPCELL_ROW_51_1595
*33825 TAP_TAPCELL_ROW_51_1596
*33826 TAP_TAPCELL_ROW_51_1597
*33827 TAP_TAPCELL_ROW_51_1598
*33828 TAP_TAPCELL_ROW_51_1599
*33829 TAP_TAPCELL_ROW_51_1600
*33830 TAP_TAPCELL_ROW_51_1601
*33831 TAP_TAPCELL_ROW_51_1602
*33832 TAP_TAPCELL_ROW_51_1603
*33833 TAP_TAPCELL_ROW_51_1604
*33834 TAP_TAPCELL_ROW_51_1605
*33835 TAP_TAPCELL_ROW_51_1606
*33836 TAP_TAPCELL_ROW_51_1607
*33837 TAP_TAPCELL_ROW_51_1608
*33838 TAP_TAPCELL_ROW_51_1609
*33839 TAP_TAPCELL_ROW_51_1610
*33840 TAP_TAPCELL_ROW_51_1611
*33841 TAP_TAPCELL_ROW_51_1612
*33842 TAP_TAPCELL_ROW_51_1613
*33843 TAP_TAPCELL_ROW_51_1614
*33844 TAP_TAPCELL_ROW_51_1615
*33845 TAP_TAPCELL_ROW_52_1616
*33846 TAP_TAPCELL_ROW_52_1617
*33847 TAP_TAPCELL_ROW_52_1618
*33848 TAP_TAPCELL_ROW_52_1619
*33849 TAP_TAPCELL_ROW_52_1620
*33850 TAP_TAPCELL_ROW_52_1621
*33851 TAP_TAPCELL_ROW_52_1622
*33852 TAP_TAPCELL_ROW_52_1623
*33853 TAP_TAPCELL_ROW_52_1624
*33854 TAP_TAPCELL_ROW_52_1625
*33855 TAP_TAPCELL_ROW_52_1626
*33856 TAP_TAPCELL_ROW_52_1627
*33857 TAP_TAPCELL_ROW_52_1628
*33858 TAP_TAPCELL_ROW_52_1629
*33859 TAP_TAPCELL_ROW_52_1630
*33860 TAP_TAPCELL_ROW_52_1631
*33861 TAP_TAPCELL_ROW_52_1632
*33862 TAP_TAPCELL_ROW_52_1633
*33863 TAP_TAPCELL_ROW_52_1634
*33864 TAP_TAPCELL_ROW_52_1635
*33865 TAP_TAPCELL_ROW_52_1636
*33866 TAP_TAPCELL_ROW_52_1637
*33867 TAP_TAPCELL_ROW_52_1638
*33868 TAP_TAPCELL_ROW_53_1639
*33869 TAP_TAPCELL_ROW_53_1640
*33870 TAP_TAPCELL_ROW_53_1641
*33871 TAP_TAPCELL_ROW_53_1642
*33872 TAP_TAPCELL_ROW_53_1643
*33873 TAP_TAPCELL_ROW_53_1644
*33874 TAP_TAPCELL_ROW_53_1645
*33875 TAP_TAPCELL_ROW_53_1646
*33876 TAP_TAPCELL_ROW_53_1647
*33877 TAP_TAPCELL_ROW_53_1648
*33878 TAP_TAPCELL_ROW_53_1649
*33879 TAP_TAPCELL_ROW_53_1650
*33880 TAP_TAPCELL_ROW_53_1651
*33881 TAP_TAPCELL_ROW_53_1652
*33882 TAP_TAPCELL_ROW_53_1653
*33883 TAP_TAPCELL_ROW_53_1654
*33884 TAP_TAPCELL_ROW_53_1655
*33885 TAP_TAPCELL_ROW_53_1656
*33886 TAP_TAPCELL_ROW_53_1657
*33887 TAP_TAPCELL_ROW_53_1658
*33888 TAP_TAPCELL_ROW_53_1659
*33889 TAP_TAPCELL_ROW_53_1660
*33890 TAP_TAPCELL_ROW_54_1661
*33891 TAP_TAPCELL_ROW_54_1662
*33892 TAP_TAPCELL_ROW_54_1663
*33893 TAP_TAPCELL_ROW_54_1664
*33894 TAP_TAPCELL_ROW_54_1665
*33895 TAP_TAPCELL_ROW_54_1666
*33896 TAP_TAPCELL_ROW_54_1667
*33897 TAP_TAPCELL_ROW_54_1668
*33898 TAP_TAPCELL_ROW_54_1669
*33899 TAP_TAPCELL_ROW_54_1670
*33900 TAP_TAPCELL_ROW_54_1671
*33901 TAP_TAPCELL_ROW_54_1672
*33902 TAP_TAPCELL_ROW_54_1673
*33903 TAP_TAPCELL_ROW_54_1674
*33904 TAP_TAPCELL_ROW_54_1675
*33905 TAP_TAPCELL_ROW_54_1676
*33906 TAP_TAPCELL_ROW_54_1677
*33907 TAP_TAPCELL_ROW_54_1678
*33908 TAP_TAPCELL_ROW_54_1679
*33909 TAP_TAPCELL_ROW_54_1680
*33910 TAP_TAPCELL_ROW_54_1681
*33911 TAP_TAPCELL_ROW_54_1682
*33912 TAP_TAPCELL_ROW_54_1683
*33913 TAP_TAPCELL_ROW_55_1684
*33914 TAP_TAPCELL_ROW_55_1685
*33915 TAP_TAPCELL_ROW_55_1686
*33916 TAP_TAPCELL_ROW_55_1687
*33917 TAP_TAPCELL_ROW_55_1688
*33918 TAP_TAPCELL_ROW_55_1689
*33919 TAP_TAPCELL_ROW_55_1690
*33920 TAP_TAPCELL_ROW_55_1691
*33921 TAP_TAPCELL_ROW_55_1692
*33922 TAP_TAPCELL_ROW_55_1693
*33923 TAP_TAPCELL_ROW_55_1694
*33924 TAP_TAPCELL_ROW_55_1695
*33925 TAP_TAPCELL_ROW_55_1696
*33926 TAP_TAPCELL_ROW_55_1697
*33927 TAP_TAPCELL_ROW_55_1698
*33928 TAP_TAPCELL_ROW_55_1699
*33929 TAP_TAPCELL_ROW_55_1700
*33930 TAP_TAPCELL_ROW_55_1701
*33931 TAP_TAPCELL_ROW_55_1702
*33932 TAP_TAPCELL_ROW_55_1703
*33933 TAP_TAPCELL_ROW_55_1704
*33934 TAP_TAPCELL_ROW_55_1705
*33935 TAP_TAPCELL_ROW_56_1706
*33936 TAP_TAPCELL_ROW_56_1707
*33937 TAP_TAPCELL_ROW_56_1708
*33938 TAP_TAPCELL_ROW_56_1709
*33939 TAP_TAPCELL_ROW_56_1710
*33940 TAP_TAPCELL_ROW_56_1711
*33941 TAP_TAPCELL_ROW_56_1712
*33942 TAP_TAPCELL_ROW_56_1713
*33943 TAP_TAPCELL_ROW_56_1714
*33944 TAP_TAPCELL_ROW_56_1715
*33945 TAP_TAPCELL_ROW_56_1716
*33946 TAP_TAPCELL_ROW_56_1717
*33947 TAP_TAPCELL_ROW_56_1718
*33948 TAP_TAPCELL_ROW_56_1719
*33949 TAP_TAPCELL_ROW_56_1720
*33950 TAP_TAPCELL_ROW_56_1721
*33951 TAP_TAPCELL_ROW_56_1722
*33952 TAP_TAPCELL_ROW_56_1723
*33953 TAP_TAPCELL_ROW_56_1724
*33954 TAP_TAPCELL_ROW_56_1725
*33955 TAP_TAPCELL_ROW_56_1726
*33956 TAP_TAPCELL_ROW_56_1727
*33957 TAP_TAPCELL_ROW_56_1728
*33958 TAP_TAPCELL_ROW_57_1729
*33959 TAP_TAPCELL_ROW_57_1730
*33960 TAP_TAPCELL_ROW_57_1731
*33961 TAP_TAPCELL_ROW_57_1732
*33962 TAP_TAPCELL_ROW_57_1733
*33963 TAP_TAPCELL_ROW_57_1734
*33964 TAP_TAPCELL_ROW_57_1735
*33965 TAP_TAPCELL_ROW_57_1736
*33966 TAP_TAPCELL_ROW_57_1737
*33967 TAP_TAPCELL_ROW_57_1738
*33968 TAP_TAPCELL_ROW_57_1739
*33969 TAP_TAPCELL_ROW_57_1740
*33970 TAP_TAPCELL_ROW_57_1741
*33971 TAP_TAPCELL_ROW_57_1742
*33972 TAP_TAPCELL_ROW_57_1743
*33973 TAP_TAPCELL_ROW_57_1744
*33974 TAP_TAPCELL_ROW_57_1745
*33975 TAP_TAPCELL_ROW_57_1746
*33976 TAP_TAPCELL_ROW_57_1747
*33977 TAP_TAPCELL_ROW_57_1748
*33978 TAP_TAPCELL_ROW_57_1749
*33979 TAP_TAPCELL_ROW_57_1750
*33980 TAP_TAPCELL_ROW_58_1751
*33981 TAP_TAPCELL_ROW_58_1752
*33982 TAP_TAPCELL_ROW_58_1753
*33983 TAP_TAPCELL_ROW_58_1754
*33984 TAP_TAPCELL_ROW_58_1755
*33985 TAP_TAPCELL_ROW_58_1756
*33986 TAP_TAPCELL_ROW_58_1757
*33987 TAP_TAPCELL_ROW_58_1758
*33988 TAP_TAPCELL_ROW_58_1759
*33989 TAP_TAPCELL_ROW_58_1760
*33990 TAP_TAPCELL_ROW_58_1761
*33991 TAP_TAPCELL_ROW_58_1762
*33992 TAP_TAPCELL_ROW_58_1763
*33993 TAP_TAPCELL_ROW_58_1764
*33994 TAP_TAPCELL_ROW_58_1765
*33995 TAP_TAPCELL_ROW_58_1766
*33996 TAP_TAPCELL_ROW_58_1767
*33997 TAP_TAPCELL_ROW_58_1768
*33998 TAP_TAPCELL_ROW_58_1769
*33999 TAP_TAPCELL_ROW_58_1770
*34000 TAP_TAPCELL_ROW_58_1771
*34001 TAP_TAPCELL_ROW_58_1772
*34002 TAP_TAPCELL_ROW_58_1773
*34003 TAP_TAPCELL_ROW_59_1774
*34004 TAP_TAPCELL_ROW_59_1775
*34005 TAP_TAPCELL_ROW_59_1776
*34006 TAP_TAPCELL_ROW_59_1777
*34007 TAP_TAPCELL_ROW_59_1778
*34008 TAP_TAPCELL_ROW_59_1779
*34009 TAP_TAPCELL_ROW_59_1780
*34010 TAP_TAPCELL_ROW_59_1781
*34011 TAP_TAPCELL_ROW_59_1782
*34012 TAP_TAPCELL_ROW_59_1783
*34013 TAP_TAPCELL_ROW_59_1784
*34014 TAP_TAPCELL_ROW_59_1785
*34015 TAP_TAPCELL_ROW_59_1786
*34016 TAP_TAPCELL_ROW_59_1787
*34017 TAP_TAPCELL_ROW_59_1788
*34018 TAP_TAPCELL_ROW_59_1789
*34019 TAP_TAPCELL_ROW_59_1790
*34020 TAP_TAPCELL_ROW_59_1791
*34021 TAP_TAPCELL_ROW_59_1792
*34022 TAP_TAPCELL_ROW_59_1793
*34023 TAP_TAPCELL_ROW_59_1794
*34024 TAP_TAPCELL_ROW_59_1795
*34025 TAP_TAPCELL_ROW_5_559
*34026 TAP_TAPCELL_ROW_5_560
*34027 TAP_TAPCELL_ROW_5_561
*34028 TAP_TAPCELL_ROW_5_562
*34029 TAP_TAPCELL_ROW_5_563
*34030 TAP_TAPCELL_ROW_5_564
*34031 TAP_TAPCELL_ROW_5_565
*34032 TAP_TAPCELL_ROW_5_566
*34033 TAP_TAPCELL_ROW_5_567
*34034 TAP_TAPCELL_ROW_5_568
*34035 TAP_TAPCELL_ROW_5_569
*34036 TAP_TAPCELL_ROW_5_570
*34037 TAP_TAPCELL_ROW_5_571
*34038 TAP_TAPCELL_ROW_5_572
*34039 TAP_TAPCELL_ROW_5_573
*34040 TAP_TAPCELL_ROW_5_574
*34041 TAP_TAPCELL_ROW_5_575
*34042 TAP_TAPCELL_ROW_5_576
*34043 TAP_TAPCELL_ROW_5_577
*34044 TAP_TAPCELL_ROW_5_578
*34045 TAP_TAPCELL_ROW_5_579
*34046 TAP_TAPCELL_ROW_5_580
*34047 TAP_TAPCELL_ROW_60_1796
*34048 TAP_TAPCELL_ROW_60_1797
*34049 TAP_TAPCELL_ROW_60_1798
*34050 TAP_TAPCELL_ROW_60_1799
*34051 TAP_TAPCELL_ROW_60_1800
*34052 TAP_TAPCELL_ROW_60_1801
*34053 TAP_TAPCELL_ROW_60_1802
*34054 TAP_TAPCELL_ROW_60_1803
*34055 TAP_TAPCELL_ROW_60_1804
*34056 TAP_TAPCELL_ROW_60_1805
*34057 TAP_TAPCELL_ROW_60_1806
*34058 TAP_TAPCELL_ROW_60_1807
*34059 TAP_TAPCELL_ROW_60_1808
*34060 TAP_TAPCELL_ROW_60_1809
*34061 TAP_TAPCELL_ROW_60_1810
*34062 TAP_TAPCELL_ROW_60_1811
*34063 TAP_TAPCELL_ROW_60_1812
*34064 TAP_TAPCELL_ROW_60_1813
*34065 TAP_TAPCELL_ROW_60_1814
*34066 TAP_TAPCELL_ROW_60_1815
*34067 TAP_TAPCELL_ROW_60_1816
*34068 TAP_TAPCELL_ROW_60_1817
*34069 TAP_TAPCELL_ROW_60_1818
*34070 TAP_TAPCELL_ROW_61_1819
*34071 TAP_TAPCELL_ROW_61_1820
*34072 TAP_TAPCELL_ROW_61_1821
*34073 TAP_TAPCELL_ROW_61_1822
*34074 TAP_TAPCELL_ROW_61_1823
*34075 TAP_TAPCELL_ROW_61_1824
*34076 TAP_TAPCELL_ROW_61_1825
*34077 TAP_TAPCELL_ROW_61_1826
*34078 TAP_TAPCELL_ROW_61_1827
*34079 TAP_TAPCELL_ROW_61_1828
*34080 TAP_TAPCELL_ROW_61_1829
*34081 TAP_TAPCELL_ROW_61_1830
*34082 TAP_TAPCELL_ROW_61_1831
*34083 TAP_TAPCELL_ROW_61_1832
*34084 TAP_TAPCELL_ROW_61_1833
*34085 TAP_TAPCELL_ROW_61_1834
*34086 TAP_TAPCELL_ROW_61_1835
*34087 TAP_TAPCELL_ROW_61_1836
*34088 TAP_TAPCELL_ROW_61_1837
*34089 TAP_TAPCELL_ROW_61_1838
*34090 TAP_TAPCELL_ROW_61_1839
*34091 TAP_TAPCELL_ROW_61_1840
*34092 TAP_TAPCELL_ROW_62_1841
*34093 TAP_TAPCELL_ROW_62_1842
*34094 TAP_TAPCELL_ROW_62_1843
*34095 TAP_TAPCELL_ROW_62_1844
*34096 TAP_TAPCELL_ROW_62_1845
*34097 TAP_TAPCELL_ROW_62_1846
*34098 TAP_TAPCELL_ROW_62_1847
*34099 TAP_TAPCELL_ROW_62_1848
*34100 TAP_TAPCELL_ROW_62_1849
*34101 TAP_TAPCELL_ROW_62_1850
*34102 TAP_TAPCELL_ROW_62_1851
*34103 TAP_TAPCELL_ROW_62_1852
*34104 TAP_TAPCELL_ROW_62_1853
*34105 TAP_TAPCELL_ROW_62_1854
*34106 TAP_TAPCELL_ROW_62_1855
*34107 TAP_TAPCELL_ROW_62_1856
*34108 TAP_TAPCELL_ROW_62_1857
*34109 TAP_TAPCELL_ROW_62_1858
*34110 TAP_TAPCELL_ROW_62_1859
*34111 TAP_TAPCELL_ROW_62_1860
*34112 TAP_TAPCELL_ROW_62_1861
*34113 TAP_TAPCELL_ROW_62_1862
*34114 TAP_TAPCELL_ROW_62_1863
*34115 TAP_TAPCELL_ROW_63_1864
*34116 TAP_TAPCELL_ROW_63_1865
*34117 TAP_TAPCELL_ROW_63_1866
*34118 TAP_TAPCELL_ROW_63_1867
*34119 TAP_TAPCELL_ROW_63_1868
*34120 TAP_TAPCELL_ROW_63_1869
*34121 TAP_TAPCELL_ROW_63_1870
*34122 TAP_TAPCELL_ROW_63_1871
*34123 TAP_TAPCELL_ROW_63_1872
*34124 TAP_TAPCELL_ROW_63_1873
*34125 TAP_TAPCELL_ROW_63_1874
*34126 TAP_TAPCELL_ROW_63_1875
*34127 TAP_TAPCELL_ROW_63_1876
*34128 TAP_TAPCELL_ROW_63_1877
*34129 TAP_TAPCELL_ROW_63_1878
*34130 TAP_TAPCELL_ROW_63_1879
*34131 TAP_TAPCELL_ROW_63_1880
*34132 TAP_TAPCELL_ROW_63_1881
*34133 TAP_TAPCELL_ROW_63_1882
*34134 TAP_TAPCELL_ROW_63_1883
*34135 TAP_TAPCELL_ROW_63_1884
*34136 TAP_TAPCELL_ROW_63_1885
*34137 TAP_TAPCELL_ROW_64_1886
*34138 TAP_TAPCELL_ROW_64_1887
*34139 TAP_TAPCELL_ROW_64_1888
*34140 TAP_TAPCELL_ROW_64_1889
*34141 TAP_TAPCELL_ROW_64_1890
*34142 TAP_TAPCELL_ROW_64_1891
*34143 TAP_TAPCELL_ROW_64_1892
*34144 TAP_TAPCELL_ROW_64_1893
*34145 TAP_TAPCELL_ROW_64_1894
*34146 TAP_TAPCELL_ROW_64_1895
*34147 TAP_TAPCELL_ROW_64_1896
*34148 TAP_TAPCELL_ROW_64_1897
*34149 TAP_TAPCELL_ROW_64_1898
*34150 TAP_TAPCELL_ROW_64_1899
*34151 TAP_TAPCELL_ROW_64_1900
*34152 TAP_TAPCELL_ROW_64_1901
*34153 TAP_TAPCELL_ROW_64_1902
*34154 TAP_TAPCELL_ROW_64_1903
*34155 TAP_TAPCELL_ROW_64_1904
*34156 TAP_TAPCELL_ROW_64_1905
*34157 TAP_TAPCELL_ROW_64_1906
*34158 TAP_TAPCELL_ROW_64_1907
*34159 TAP_TAPCELL_ROW_64_1908
*34160 TAP_TAPCELL_ROW_65_1909
*34161 TAP_TAPCELL_ROW_65_1910
*34162 TAP_TAPCELL_ROW_65_1911
*34163 TAP_TAPCELL_ROW_65_1912
*34164 TAP_TAPCELL_ROW_65_1913
*34165 TAP_TAPCELL_ROW_65_1914
*34166 TAP_TAPCELL_ROW_65_1915
*34167 TAP_TAPCELL_ROW_65_1916
*34168 TAP_TAPCELL_ROW_65_1917
*34169 TAP_TAPCELL_ROW_65_1918
*34170 TAP_TAPCELL_ROW_65_1919
*34171 TAP_TAPCELL_ROW_65_1920
*34172 TAP_TAPCELL_ROW_65_1921
*34173 TAP_TAPCELL_ROW_65_1922
*34174 TAP_TAPCELL_ROW_65_1923
*34175 TAP_TAPCELL_ROW_65_1924
*34176 TAP_TAPCELL_ROW_65_1925
*34177 TAP_TAPCELL_ROW_65_1926
*34178 TAP_TAPCELL_ROW_65_1927
*34179 TAP_TAPCELL_ROW_65_1928
*34180 TAP_TAPCELL_ROW_65_1929
*34181 TAP_TAPCELL_ROW_65_1930
*34182 TAP_TAPCELL_ROW_66_1931
*34183 TAP_TAPCELL_ROW_66_1932
*34184 TAP_TAPCELL_ROW_66_1933
*34185 TAP_TAPCELL_ROW_66_1934
*34186 TAP_TAPCELL_ROW_66_1935
*34187 TAP_TAPCELL_ROW_66_1936
*34188 TAP_TAPCELL_ROW_66_1937
*34189 TAP_TAPCELL_ROW_66_1938
*34190 TAP_TAPCELL_ROW_66_1939
*34191 TAP_TAPCELL_ROW_66_1940
*34192 TAP_TAPCELL_ROW_66_1941
*34193 TAP_TAPCELL_ROW_66_1942
*34194 TAP_TAPCELL_ROW_66_1943
*34195 TAP_TAPCELL_ROW_66_1944
*34196 TAP_TAPCELL_ROW_66_1945
*34197 TAP_TAPCELL_ROW_66_1946
*34198 TAP_TAPCELL_ROW_66_1947
*34199 TAP_TAPCELL_ROW_66_1948
*34200 TAP_TAPCELL_ROW_66_1949
*34201 TAP_TAPCELL_ROW_66_1950
*34202 TAP_TAPCELL_ROW_66_1951
*34203 TAP_TAPCELL_ROW_66_1952
*34204 TAP_TAPCELL_ROW_66_1953
*34205 TAP_TAPCELL_ROW_67_1954
*34206 TAP_TAPCELL_ROW_67_1955
*34207 TAP_TAPCELL_ROW_67_1956
*34208 TAP_TAPCELL_ROW_67_1957
*34209 TAP_TAPCELL_ROW_67_1958
*34210 TAP_TAPCELL_ROW_67_1959
*34211 TAP_TAPCELL_ROW_67_1960
*34212 TAP_TAPCELL_ROW_67_1961
*34213 TAP_TAPCELL_ROW_67_1962
*34214 TAP_TAPCELL_ROW_67_1963
*34215 TAP_TAPCELL_ROW_67_1964
*34216 TAP_TAPCELL_ROW_67_1965
*34217 TAP_TAPCELL_ROW_67_1966
*34218 TAP_TAPCELL_ROW_67_1967
*34219 TAP_TAPCELL_ROW_67_1968
*34220 TAP_TAPCELL_ROW_67_1969
*34221 TAP_TAPCELL_ROW_67_1970
*34222 TAP_TAPCELL_ROW_67_1971
*34223 TAP_TAPCELL_ROW_67_1972
*34224 TAP_TAPCELL_ROW_67_1973
*34225 TAP_TAPCELL_ROW_67_1974
*34226 TAP_TAPCELL_ROW_67_1975
*34227 TAP_TAPCELL_ROW_68_1976
*34228 TAP_TAPCELL_ROW_68_1977
*34229 TAP_TAPCELL_ROW_68_1978
*34230 TAP_TAPCELL_ROW_68_1979
*34231 TAP_TAPCELL_ROW_68_1980
*34232 TAP_TAPCELL_ROW_68_1981
*34233 TAP_TAPCELL_ROW_68_1982
*34234 TAP_TAPCELL_ROW_68_1983
*34235 TAP_TAPCELL_ROW_68_1984
*34236 TAP_TAPCELL_ROW_68_1985
*34237 TAP_TAPCELL_ROW_68_1986
*34238 TAP_TAPCELL_ROW_68_1987
*34239 TAP_TAPCELL_ROW_68_1988
*34240 TAP_TAPCELL_ROW_68_1989
*34241 TAP_TAPCELL_ROW_68_1990
*34242 TAP_TAPCELL_ROW_68_1991
*34243 TAP_TAPCELL_ROW_68_1992
*34244 TAP_TAPCELL_ROW_68_1993
*34245 TAP_TAPCELL_ROW_68_1994
*34246 TAP_TAPCELL_ROW_68_1995
*34247 TAP_TAPCELL_ROW_68_1996
*34248 TAP_TAPCELL_ROW_68_1997
*34249 TAP_TAPCELL_ROW_68_1998
*34250 TAP_TAPCELL_ROW_69_1999
*34251 TAP_TAPCELL_ROW_69_2000
*34252 TAP_TAPCELL_ROW_69_2001
*34253 TAP_TAPCELL_ROW_69_2002
*34254 TAP_TAPCELL_ROW_69_2003
*34255 TAP_TAPCELL_ROW_69_2004
*34256 TAP_TAPCELL_ROW_69_2005
*34257 TAP_TAPCELL_ROW_69_2006
*34258 TAP_TAPCELL_ROW_69_2007
*34259 TAP_TAPCELL_ROW_69_2008
*34260 TAP_TAPCELL_ROW_69_2009
*34261 TAP_TAPCELL_ROW_69_2010
*34262 TAP_TAPCELL_ROW_69_2011
*34263 TAP_TAPCELL_ROW_69_2012
*34264 TAP_TAPCELL_ROW_69_2013
*34265 TAP_TAPCELL_ROW_69_2014
*34266 TAP_TAPCELL_ROW_69_2015
*34267 TAP_TAPCELL_ROW_69_2016
*34268 TAP_TAPCELL_ROW_69_2017
*34269 TAP_TAPCELL_ROW_69_2018
*34270 TAP_TAPCELL_ROW_69_2019
*34271 TAP_TAPCELL_ROW_69_2020
*34272 TAP_TAPCELL_ROW_6_581
*34273 TAP_TAPCELL_ROW_6_582
*34274 TAP_TAPCELL_ROW_6_583
*34275 TAP_TAPCELL_ROW_6_584
*34276 TAP_TAPCELL_ROW_6_585
*34277 TAP_TAPCELL_ROW_6_586
*34278 TAP_TAPCELL_ROW_6_587
*34279 TAP_TAPCELL_ROW_6_588
*34280 TAP_TAPCELL_ROW_6_589
*34281 TAP_TAPCELL_ROW_6_590
*34282 TAP_TAPCELL_ROW_6_591
*34283 TAP_TAPCELL_ROW_6_592
*34284 TAP_TAPCELL_ROW_6_593
*34285 TAP_TAPCELL_ROW_6_594
*34286 TAP_TAPCELL_ROW_6_595
*34287 TAP_TAPCELL_ROW_6_596
*34288 TAP_TAPCELL_ROW_6_597
*34289 TAP_TAPCELL_ROW_6_598
*34290 TAP_TAPCELL_ROW_6_599
*34291 TAP_TAPCELL_ROW_6_600
*34292 TAP_TAPCELL_ROW_6_601
*34293 TAP_TAPCELL_ROW_6_602
*34294 TAP_TAPCELL_ROW_6_603
*34295 TAP_TAPCELL_ROW_70_2021
*34296 TAP_TAPCELL_ROW_70_2022
*34297 TAP_TAPCELL_ROW_70_2023
*34298 TAP_TAPCELL_ROW_70_2024
*34299 TAP_TAPCELL_ROW_70_2025
*34300 TAP_TAPCELL_ROW_70_2026
*34301 TAP_TAPCELL_ROW_70_2027
*34302 TAP_TAPCELL_ROW_70_2028
*34303 TAP_TAPCELL_ROW_70_2029
*34304 TAP_TAPCELL_ROW_70_2030
*34305 TAP_TAPCELL_ROW_70_2031
*34306 TAP_TAPCELL_ROW_70_2032
*34307 TAP_TAPCELL_ROW_70_2033
*34308 TAP_TAPCELL_ROW_70_2034
*34309 TAP_TAPCELL_ROW_70_2035
*34310 TAP_TAPCELL_ROW_70_2036
*34311 TAP_TAPCELL_ROW_70_2037
*34312 TAP_TAPCELL_ROW_70_2038
*34313 TAP_TAPCELL_ROW_70_2039
*34314 TAP_TAPCELL_ROW_70_2040
*34315 TAP_TAPCELL_ROW_70_2041
*34316 TAP_TAPCELL_ROW_70_2042
*34317 TAP_TAPCELL_ROW_70_2043
*34318 TAP_TAPCELL_ROW_71_2044
*34319 TAP_TAPCELL_ROW_71_2045
*34320 TAP_TAPCELL_ROW_71_2046
*34321 TAP_TAPCELL_ROW_71_2047
*34322 TAP_TAPCELL_ROW_71_2048
*34323 TAP_TAPCELL_ROW_71_2049
*34324 TAP_TAPCELL_ROW_71_2050
*34325 TAP_TAPCELL_ROW_71_2051
*34326 TAP_TAPCELL_ROW_71_2052
*34327 TAP_TAPCELL_ROW_71_2053
*34328 TAP_TAPCELL_ROW_71_2054
*34329 TAP_TAPCELL_ROW_71_2055
*34330 TAP_TAPCELL_ROW_71_2056
*34331 TAP_TAPCELL_ROW_71_2057
*34332 TAP_TAPCELL_ROW_71_2058
*34333 TAP_TAPCELL_ROW_71_2059
*34334 TAP_TAPCELL_ROW_71_2060
*34335 TAP_TAPCELL_ROW_71_2061
*34336 TAP_TAPCELL_ROW_71_2062
*34337 TAP_TAPCELL_ROW_71_2063
*34338 TAP_TAPCELL_ROW_71_2064
*34339 TAP_TAPCELL_ROW_71_2065
*34340 TAP_TAPCELL_ROW_72_2066
*34341 TAP_TAPCELL_ROW_72_2067
*34342 TAP_TAPCELL_ROW_72_2068
*34343 TAP_TAPCELL_ROW_72_2069
*34344 TAP_TAPCELL_ROW_72_2070
*34345 TAP_TAPCELL_ROW_72_2071
*34346 TAP_TAPCELL_ROW_72_2072
*34347 TAP_TAPCELL_ROW_72_2073
*34348 TAP_TAPCELL_ROW_72_2074
*34349 TAP_TAPCELL_ROW_72_2075
*34350 TAP_TAPCELL_ROW_72_2076
*34351 TAP_TAPCELL_ROW_72_2077
*34352 TAP_TAPCELL_ROW_72_2078
*34353 TAP_TAPCELL_ROW_72_2079
*34354 TAP_TAPCELL_ROW_72_2080
*34355 TAP_TAPCELL_ROW_72_2081
*34356 TAP_TAPCELL_ROW_72_2082
*34357 TAP_TAPCELL_ROW_72_2083
*34358 TAP_TAPCELL_ROW_72_2084
*34359 TAP_TAPCELL_ROW_72_2085
*34360 TAP_TAPCELL_ROW_72_2086
*34361 TAP_TAPCELL_ROW_72_2087
*34362 TAP_TAPCELL_ROW_72_2088
*34363 TAP_TAPCELL_ROW_73_2089
*34364 TAP_TAPCELL_ROW_73_2090
*34365 TAP_TAPCELL_ROW_73_2091
*34366 TAP_TAPCELL_ROW_73_2092
*34367 TAP_TAPCELL_ROW_73_2093
*34368 TAP_TAPCELL_ROW_73_2094
*34369 TAP_TAPCELL_ROW_73_2095
*34370 TAP_TAPCELL_ROW_73_2096
*34371 TAP_TAPCELL_ROW_73_2097
*34372 TAP_TAPCELL_ROW_73_2098
*34373 TAP_TAPCELL_ROW_73_2099
*34374 TAP_TAPCELL_ROW_73_2100
*34375 TAP_TAPCELL_ROW_73_2101
*34376 TAP_TAPCELL_ROW_73_2102
*34377 TAP_TAPCELL_ROW_73_2103
*34378 TAP_TAPCELL_ROW_73_2104
*34379 TAP_TAPCELL_ROW_73_2105
*34380 TAP_TAPCELL_ROW_73_2106
*34381 TAP_TAPCELL_ROW_73_2107
*34382 TAP_TAPCELL_ROW_73_2108
*34383 TAP_TAPCELL_ROW_73_2109
*34384 TAP_TAPCELL_ROW_73_2110
*34385 TAP_TAPCELL_ROW_74_2111
*34386 TAP_TAPCELL_ROW_74_2112
*34387 TAP_TAPCELL_ROW_74_2113
*34388 TAP_TAPCELL_ROW_74_2114
*34389 TAP_TAPCELL_ROW_74_2115
*34390 TAP_TAPCELL_ROW_74_2116
*34391 TAP_TAPCELL_ROW_74_2117
*34392 TAP_TAPCELL_ROW_74_2118
*34393 TAP_TAPCELL_ROW_74_2119
*34394 TAP_TAPCELL_ROW_74_2120
*34395 TAP_TAPCELL_ROW_74_2121
*34396 TAP_TAPCELL_ROW_74_2122
*34397 TAP_TAPCELL_ROW_74_2123
*34398 TAP_TAPCELL_ROW_74_2124
*34399 TAP_TAPCELL_ROW_74_2125
*34400 TAP_TAPCELL_ROW_74_2126
*34401 TAP_TAPCELL_ROW_74_2127
*34402 TAP_TAPCELL_ROW_74_2128
*34403 TAP_TAPCELL_ROW_74_2129
*34404 TAP_TAPCELL_ROW_74_2130
*34405 TAP_TAPCELL_ROW_74_2131
*34406 TAP_TAPCELL_ROW_74_2132
*34407 TAP_TAPCELL_ROW_74_2133
*34408 TAP_TAPCELL_ROW_75_2134
*34409 TAP_TAPCELL_ROW_75_2135
*34410 TAP_TAPCELL_ROW_75_2136
*34411 TAP_TAPCELL_ROW_75_2137
*34412 TAP_TAPCELL_ROW_75_2138
*34413 TAP_TAPCELL_ROW_75_2139
*34414 TAP_TAPCELL_ROW_75_2140
*34415 TAP_TAPCELL_ROW_75_2141
*34416 TAP_TAPCELL_ROW_75_2142
*34417 TAP_TAPCELL_ROW_75_2143
*34418 TAP_TAPCELL_ROW_75_2144
*34419 TAP_TAPCELL_ROW_75_2145
*34420 TAP_TAPCELL_ROW_75_2146
*34421 TAP_TAPCELL_ROW_75_2147
*34422 TAP_TAPCELL_ROW_75_2148
*34423 TAP_TAPCELL_ROW_75_2149
*34424 TAP_TAPCELL_ROW_75_2150
*34425 TAP_TAPCELL_ROW_75_2151
*34426 TAP_TAPCELL_ROW_75_2152
*34427 TAP_TAPCELL_ROW_75_2153
*34428 TAP_TAPCELL_ROW_75_2154
*34429 TAP_TAPCELL_ROW_75_2155
*34430 TAP_TAPCELL_ROW_76_2156
*34431 TAP_TAPCELL_ROW_76_2157
*34432 TAP_TAPCELL_ROW_76_2158
*34433 TAP_TAPCELL_ROW_76_2159
*34434 TAP_TAPCELL_ROW_76_2160
*34435 TAP_TAPCELL_ROW_76_2161
*34436 TAP_TAPCELL_ROW_76_2162
*34437 TAP_TAPCELL_ROW_76_2163
*34438 TAP_TAPCELL_ROW_76_2164
*34439 TAP_TAPCELL_ROW_76_2165
*34440 TAP_TAPCELL_ROW_76_2166
*34441 TAP_TAPCELL_ROW_76_2167
*34442 TAP_TAPCELL_ROW_76_2168
*34443 TAP_TAPCELL_ROW_76_2169
*34444 TAP_TAPCELL_ROW_76_2170
*34445 TAP_TAPCELL_ROW_76_2171
*34446 TAP_TAPCELL_ROW_76_2172
*34447 TAP_TAPCELL_ROW_76_2173
*34448 TAP_TAPCELL_ROW_76_2174
*34449 TAP_TAPCELL_ROW_76_2175
*34450 TAP_TAPCELL_ROW_76_2176
*34451 TAP_TAPCELL_ROW_76_2177
*34452 TAP_TAPCELL_ROW_76_2178
*34453 TAP_TAPCELL_ROW_77_2179
*34454 TAP_TAPCELL_ROW_77_2180
*34455 TAP_TAPCELL_ROW_77_2181
*34456 TAP_TAPCELL_ROW_77_2182
*34457 TAP_TAPCELL_ROW_77_2183
*34458 TAP_TAPCELL_ROW_77_2184
*34459 TAP_TAPCELL_ROW_77_2185
*34460 TAP_TAPCELL_ROW_77_2186
*34461 TAP_TAPCELL_ROW_77_2187
*34462 TAP_TAPCELL_ROW_77_2188
*34463 TAP_TAPCELL_ROW_77_2189
*34464 TAP_TAPCELL_ROW_77_2190
*34465 TAP_TAPCELL_ROW_77_2191
*34466 TAP_TAPCELL_ROW_77_2192
*34467 TAP_TAPCELL_ROW_77_2193
*34468 TAP_TAPCELL_ROW_77_2194
*34469 TAP_TAPCELL_ROW_77_2195
*34470 TAP_TAPCELL_ROW_77_2196
*34471 TAP_TAPCELL_ROW_77_2197
*34472 TAP_TAPCELL_ROW_77_2198
*34473 TAP_TAPCELL_ROW_77_2199
*34474 TAP_TAPCELL_ROW_77_2200
*34475 TAP_TAPCELL_ROW_78_2201
*34476 TAP_TAPCELL_ROW_78_2202
*34477 TAP_TAPCELL_ROW_78_2203
*34478 TAP_TAPCELL_ROW_78_2204
*34479 TAP_TAPCELL_ROW_78_2205
*34480 TAP_TAPCELL_ROW_78_2206
*34481 TAP_TAPCELL_ROW_78_2207
*34482 TAP_TAPCELL_ROW_78_2208
*34483 TAP_TAPCELL_ROW_78_2209
*34484 TAP_TAPCELL_ROW_78_2210
*34485 TAP_TAPCELL_ROW_78_2211
*34486 TAP_TAPCELL_ROW_78_2212
*34487 TAP_TAPCELL_ROW_78_2213
*34488 TAP_TAPCELL_ROW_78_2214
*34489 TAP_TAPCELL_ROW_78_2215
*34490 TAP_TAPCELL_ROW_78_2216
*34491 TAP_TAPCELL_ROW_78_2217
*34492 TAP_TAPCELL_ROW_78_2218
*34493 TAP_TAPCELL_ROW_78_2219
*34494 TAP_TAPCELL_ROW_78_2220
*34495 TAP_TAPCELL_ROW_78_2221
*34496 TAP_TAPCELL_ROW_78_2222
*34497 TAP_TAPCELL_ROW_78_2223
*34498 TAP_TAPCELL_ROW_79_2224
*34499 TAP_TAPCELL_ROW_79_2225
*34500 TAP_TAPCELL_ROW_79_2226
*34501 TAP_TAPCELL_ROW_79_2227
*34502 TAP_TAPCELL_ROW_79_2228
*34503 TAP_TAPCELL_ROW_79_2229
*34504 TAP_TAPCELL_ROW_79_2230
*34505 TAP_TAPCELL_ROW_79_2231
*34506 TAP_TAPCELL_ROW_79_2232
*34507 TAP_TAPCELL_ROW_79_2233
*34508 TAP_TAPCELL_ROW_79_2234
*34509 TAP_TAPCELL_ROW_79_2235
*34510 TAP_TAPCELL_ROW_79_2236
*34511 TAP_TAPCELL_ROW_79_2237
*34512 TAP_TAPCELL_ROW_79_2238
*34513 TAP_TAPCELL_ROW_79_2239
*34514 TAP_TAPCELL_ROW_79_2240
*34515 TAP_TAPCELL_ROW_79_2241
*34516 TAP_TAPCELL_ROW_79_2242
*34517 TAP_TAPCELL_ROW_79_2243
*34518 TAP_TAPCELL_ROW_79_2244
*34519 TAP_TAPCELL_ROW_79_2245
*34520 TAP_TAPCELL_ROW_7_604
*34521 TAP_TAPCELL_ROW_7_605
*34522 TAP_TAPCELL_ROW_7_606
*34523 TAP_TAPCELL_ROW_7_607
*34524 TAP_TAPCELL_ROW_7_608
*34525 TAP_TAPCELL_ROW_7_609
*34526 TAP_TAPCELL_ROW_7_610
*34527 TAP_TAPCELL_ROW_7_611
*34528 TAP_TAPCELL_ROW_7_612
*34529 TAP_TAPCELL_ROW_7_613
*34530 TAP_TAPCELL_ROW_7_614
*34531 TAP_TAPCELL_ROW_7_615
*34532 TAP_TAPCELL_ROW_7_616
*34533 TAP_TAPCELL_ROW_7_617
*34534 TAP_TAPCELL_ROW_7_618
*34535 TAP_TAPCELL_ROW_7_619
*34536 TAP_TAPCELL_ROW_7_620
*34537 TAP_TAPCELL_ROW_7_621
*34538 TAP_TAPCELL_ROW_7_622
*34539 TAP_TAPCELL_ROW_7_623
*34540 TAP_TAPCELL_ROW_7_624
*34541 TAP_TAPCELL_ROW_7_625
*34542 TAP_TAPCELL_ROW_80_2246
*34543 TAP_TAPCELL_ROW_80_2247
*34544 TAP_TAPCELL_ROW_80_2248
*34545 TAP_TAPCELL_ROW_80_2249
*34546 TAP_TAPCELL_ROW_80_2250
*34547 TAP_TAPCELL_ROW_80_2251
*34548 TAP_TAPCELL_ROW_80_2252
*34549 TAP_TAPCELL_ROW_80_2253
*34550 TAP_TAPCELL_ROW_80_2254
*34551 TAP_TAPCELL_ROW_80_2255
*34552 TAP_TAPCELL_ROW_80_2256
*34553 TAP_TAPCELL_ROW_80_2257
*34554 TAP_TAPCELL_ROW_80_2258
*34555 TAP_TAPCELL_ROW_80_2259
*34556 TAP_TAPCELL_ROW_80_2260
*34557 TAP_TAPCELL_ROW_80_2261
*34558 TAP_TAPCELL_ROW_80_2262
*34559 TAP_TAPCELL_ROW_80_2263
*34560 TAP_TAPCELL_ROW_80_2264
*34561 TAP_TAPCELL_ROW_80_2265
*34562 TAP_TAPCELL_ROW_80_2266
*34563 TAP_TAPCELL_ROW_80_2267
*34564 TAP_TAPCELL_ROW_80_2268
*34565 TAP_TAPCELL_ROW_81_2269
*34566 TAP_TAPCELL_ROW_81_2270
*34567 TAP_TAPCELL_ROW_81_2271
*34568 TAP_TAPCELL_ROW_81_2272
*34569 TAP_TAPCELL_ROW_81_2273
*34570 TAP_TAPCELL_ROW_81_2274
*34571 TAP_TAPCELL_ROW_81_2275
*34572 TAP_TAPCELL_ROW_81_2276
*34573 TAP_TAPCELL_ROW_81_2277
*34574 TAP_TAPCELL_ROW_81_2278
*34575 TAP_TAPCELL_ROW_81_2279
*34576 TAP_TAPCELL_ROW_81_2280
*34577 TAP_TAPCELL_ROW_81_2281
*34578 TAP_TAPCELL_ROW_81_2282
*34579 TAP_TAPCELL_ROW_81_2283
*34580 TAP_TAPCELL_ROW_81_2284
*34581 TAP_TAPCELL_ROW_81_2285
*34582 TAP_TAPCELL_ROW_81_2286
*34583 TAP_TAPCELL_ROW_81_2287
*34584 TAP_TAPCELL_ROW_81_2288
*34585 TAP_TAPCELL_ROW_81_2289
*34586 TAP_TAPCELL_ROW_81_2290
*34587 TAP_TAPCELL_ROW_82_2291
*34588 TAP_TAPCELL_ROW_82_2292
*34589 TAP_TAPCELL_ROW_82_2293
*34590 TAP_TAPCELL_ROW_82_2294
*34591 TAP_TAPCELL_ROW_82_2295
*34592 TAP_TAPCELL_ROW_82_2296
*34593 TAP_TAPCELL_ROW_82_2297
*34594 TAP_TAPCELL_ROW_82_2298
*34595 TAP_TAPCELL_ROW_82_2299
*34596 TAP_TAPCELL_ROW_82_2300
*34597 TAP_TAPCELL_ROW_82_2301
*34598 TAP_TAPCELL_ROW_82_2302
*34599 TAP_TAPCELL_ROW_82_2303
*34600 TAP_TAPCELL_ROW_82_2304
*34601 TAP_TAPCELL_ROW_82_2305
*34602 TAP_TAPCELL_ROW_82_2306
*34603 TAP_TAPCELL_ROW_82_2307
*34604 TAP_TAPCELL_ROW_82_2308
*34605 TAP_TAPCELL_ROW_82_2309
*34606 TAP_TAPCELL_ROW_82_2310
*34607 TAP_TAPCELL_ROW_82_2311
*34608 TAP_TAPCELL_ROW_82_2312
*34609 TAP_TAPCELL_ROW_82_2313
*34610 TAP_TAPCELL_ROW_83_2314
*34611 TAP_TAPCELL_ROW_83_2315
*34612 TAP_TAPCELL_ROW_83_2316
*34613 TAP_TAPCELL_ROW_83_2317
*34614 TAP_TAPCELL_ROW_83_2318
*34615 TAP_TAPCELL_ROW_83_2319
*34616 TAP_TAPCELL_ROW_83_2320
*34617 TAP_TAPCELL_ROW_83_2321
*34618 TAP_TAPCELL_ROW_83_2322
*34619 TAP_TAPCELL_ROW_83_2323
*34620 TAP_TAPCELL_ROW_83_2324
*34621 TAP_TAPCELL_ROW_83_2325
*34622 TAP_TAPCELL_ROW_83_2326
*34623 TAP_TAPCELL_ROW_83_2327
*34624 TAP_TAPCELL_ROW_83_2328
*34625 TAP_TAPCELL_ROW_83_2329
*34626 TAP_TAPCELL_ROW_83_2330
*34627 TAP_TAPCELL_ROW_83_2331
*34628 TAP_TAPCELL_ROW_83_2332
*34629 TAP_TAPCELL_ROW_83_2333
*34630 TAP_TAPCELL_ROW_83_2334
*34631 TAP_TAPCELL_ROW_83_2335
*34632 TAP_TAPCELL_ROW_84_2336
*34633 TAP_TAPCELL_ROW_84_2337
*34634 TAP_TAPCELL_ROW_84_2338
*34635 TAP_TAPCELL_ROW_84_2339
*34636 TAP_TAPCELL_ROW_84_2340
*34637 TAP_TAPCELL_ROW_84_2341
*34638 TAP_TAPCELL_ROW_84_2342
*34639 TAP_TAPCELL_ROW_84_2343
*34640 TAP_TAPCELL_ROW_84_2344
*34641 TAP_TAPCELL_ROW_84_2345
*34642 TAP_TAPCELL_ROW_84_2346
*34643 TAP_TAPCELL_ROW_84_2347
*34644 TAP_TAPCELL_ROW_84_2348
*34645 TAP_TAPCELL_ROW_84_2349
*34646 TAP_TAPCELL_ROW_84_2350
*34647 TAP_TAPCELL_ROW_84_2351
*34648 TAP_TAPCELL_ROW_84_2352
*34649 TAP_TAPCELL_ROW_84_2353
*34650 TAP_TAPCELL_ROW_84_2354
*34651 TAP_TAPCELL_ROW_84_2355
*34652 TAP_TAPCELL_ROW_84_2356
*34653 TAP_TAPCELL_ROW_84_2357
*34654 TAP_TAPCELL_ROW_84_2358
*34655 TAP_TAPCELL_ROW_85_2359
*34656 TAP_TAPCELL_ROW_85_2360
*34657 TAP_TAPCELL_ROW_85_2361
*34658 TAP_TAPCELL_ROW_85_2362
*34659 TAP_TAPCELL_ROW_85_2363
*34660 TAP_TAPCELL_ROW_85_2364
*34661 TAP_TAPCELL_ROW_85_2365
*34662 TAP_TAPCELL_ROW_85_2366
*34663 TAP_TAPCELL_ROW_85_2367
*34664 TAP_TAPCELL_ROW_85_2368
*34665 TAP_TAPCELL_ROW_85_2369
*34666 TAP_TAPCELL_ROW_85_2370
*34667 TAP_TAPCELL_ROW_85_2371
*34668 TAP_TAPCELL_ROW_85_2372
*34669 TAP_TAPCELL_ROW_85_2373
*34670 TAP_TAPCELL_ROW_85_2374
*34671 TAP_TAPCELL_ROW_85_2375
*34672 TAP_TAPCELL_ROW_85_2376
*34673 TAP_TAPCELL_ROW_85_2377
*34674 TAP_TAPCELL_ROW_85_2378
*34675 TAP_TAPCELL_ROW_85_2379
*34676 TAP_TAPCELL_ROW_85_2380
*34677 TAP_TAPCELL_ROW_86_2381
*34678 TAP_TAPCELL_ROW_86_2382
*34679 TAP_TAPCELL_ROW_86_2383
*34680 TAP_TAPCELL_ROW_86_2384
*34681 TAP_TAPCELL_ROW_86_2385
*34682 TAP_TAPCELL_ROW_86_2386
*34683 TAP_TAPCELL_ROW_86_2387
*34684 TAP_TAPCELL_ROW_86_2388
*34685 TAP_TAPCELL_ROW_86_2389
*34686 TAP_TAPCELL_ROW_86_2390
*34687 TAP_TAPCELL_ROW_86_2391
*34688 TAP_TAPCELL_ROW_86_2392
*34689 TAP_TAPCELL_ROW_86_2393
*34690 TAP_TAPCELL_ROW_86_2394
*34691 TAP_TAPCELL_ROW_86_2395
*34692 TAP_TAPCELL_ROW_86_2396
*34693 TAP_TAPCELL_ROW_86_2397
*34694 TAP_TAPCELL_ROW_86_2398
*34695 TAP_TAPCELL_ROW_86_2399
*34696 TAP_TAPCELL_ROW_86_2400
*34697 TAP_TAPCELL_ROW_86_2401
*34698 TAP_TAPCELL_ROW_86_2402
*34699 TAP_TAPCELL_ROW_86_2403
*34700 TAP_TAPCELL_ROW_87_2404
*34701 TAP_TAPCELL_ROW_87_2405
*34702 TAP_TAPCELL_ROW_87_2406
*34703 TAP_TAPCELL_ROW_87_2407
*34704 TAP_TAPCELL_ROW_87_2408
*34705 TAP_TAPCELL_ROW_87_2409
*34706 TAP_TAPCELL_ROW_87_2410
*34707 TAP_TAPCELL_ROW_87_2411
*34708 TAP_TAPCELL_ROW_87_2412
*34709 TAP_TAPCELL_ROW_87_2413
*34710 TAP_TAPCELL_ROW_87_2414
*34711 TAP_TAPCELL_ROW_87_2415
*34712 TAP_TAPCELL_ROW_87_2416
*34713 TAP_TAPCELL_ROW_87_2417
*34714 TAP_TAPCELL_ROW_87_2418
*34715 TAP_TAPCELL_ROW_87_2419
*34716 TAP_TAPCELL_ROW_87_2420
*34717 TAP_TAPCELL_ROW_87_2421
*34718 TAP_TAPCELL_ROW_87_2422
*34719 TAP_TAPCELL_ROW_87_2423
*34720 TAP_TAPCELL_ROW_87_2424
*34721 TAP_TAPCELL_ROW_87_2425
*34722 TAP_TAPCELL_ROW_88_2426
*34723 TAP_TAPCELL_ROW_88_2427
*34724 TAP_TAPCELL_ROW_88_2428
*34725 TAP_TAPCELL_ROW_88_2429
*34726 TAP_TAPCELL_ROW_88_2430
*34727 TAP_TAPCELL_ROW_88_2431
*34728 TAP_TAPCELL_ROW_88_2432
*34729 TAP_TAPCELL_ROW_88_2433
*34730 TAP_TAPCELL_ROW_88_2434
*34731 TAP_TAPCELL_ROW_88_2435
*34732 TAP_TAPCELL_ROW_88_2436
*34733 TAP_TAPCELL_ROW_88_2437
*34734 TAP_TAPCELL_ROW_88_2438
*34735 TAP_TAPCELL_ROW_88_2439
*34736 TAP_TAPCELL_ROW_88_2440
*34737 TAP_TAPCELL_ROW_88_2441
*34738 TAP_TAPCELL_ROW_88_2442
*34739 TAP_TAPCELL_ROW_88_2443
*34740 TAP_TAPCELL_ROW_88_2444
*34741 TAP_TAPCELL_ROW_88_2445
*34742 TAP_TAPCELL_ROW_88_2446
*34743 TAP_TAPCELL_ROW_88_2447
*34744 TAP_TAPCELL_ROW_88_2448
*34745 TAP_TAPCELL_ROW_89_2449
*34746 TAP_TAPCELL_ROW_89_2450
*34747 TAP_TAPCELL_ROW_89_2451
*34748 TAP_TAPCELL_ROW_89_2452
*34749 TAP_TAPCELL_ROW_89_2453
*34750 TAP_TAPCELL_ROW_89_2454
*34751 TAP_TAPCELL_ROW_89_2455
*34752 TAP_TAPCELL_ROW_89_2456
*34753 TAP_TAPCELL_ROW_89_2457
*34754 TAP_TAPCELL_ROW_89_2458
*34755 TAP_TAPCELL_ROW_89_2459
*34756 TAP_TAPCELL_ROW_89_2460
*34757 TAP_TAPCELL_ROW_89_2461
*34758 TAP_TAPCELL_ROW_89_2462
*34759 TAP_TAPCELL_ROW_89_2463
*34760 TAP_TAPCELL_ROW_89_2464
*34761 TAP_TAPCELL_ROW_89_2465
*34762 TAP_TAPCELL_ROW_89_2466
*34763 TAP_TAPCELL_ROW_89_2467
*34764 TAP_TAPCELL_ROW_89_2468
*34765 TAP_TAPCELL_ROW_89_2469
*34766 TAP_TAPCELL_ROW_89_2470
*34767 TAP_TAPCELL_ROW_8_626
*34768 TAP_TAPCELL_ROW_8_627
*34769 TAP_TAPCELL_ROW_8_628
*34770 TAP_TAPCELL_ROW_8_629
*34771 TAP_TAPCELL_ROW_8_630
*34772 TAP_TAPCELL_ROW_8_631
*34773 TAP_TAPCELL_ROW_8_632
*34774 TAP_TAPCELL_ROW_8_633
*34775 TAP_TAPCELL_ROW_8_634
*34776 TAP_TAPCELL_ROW_8_635
*34777 TAP_TAPCELL_ROW_8_636
*34778 TAP_TAPCELL_ROW_8_637
*34779 TAP_TAPCELL_ROW_8_638
*34780 TAP_TAPCELL_ROW_8_639
*34781 TAP_TAPCELL_ROW_8_640
*34782 TAP_TAPCELL_ROW_8_641
*34783 TAP_TAPCELL_ROW_8_642
*34784 TAP_TAPCELL_ROW_8_643
*34785 TAP_TAPCELL_ROW_8_644
*34786 TAP_TAPCELL_ROW_8_645
*34787 TAP_TAPCELL_ROW_8_646
*34788 TAP_TAPCELL_ROW_8_647
*34789 TAP_TAPCELL_ROW_8_648
*34790 TAP_TAPCELL_ROW_90_2471
*34791 TAP_TAPCELL_ROW_90_2472
*34792 TAP_TAPCELL_ROW_90_2473
*34793 TAP_TAPCELL_ROW_90_2474
*34794 TAP_TAPCELL_ROW_90_2475
*34795 TAP_TAPCELL_ROW_90_2476
*34796 TAP_TAPCELL_ROW_90_2477
*34797 TAP_TAPCELL_ROW_90_2478
*34798 TAP_TAPCELL_ROW_90_2479
*34799 TAP_TAPCELL_ROW_90_2480
*34800 TAP_TAPCELL_ROW_90_2481
*34801 TAP_TAPCELL_ROW_90_2482
*34802 TAP_TAPCELL_ROW_90_2483
*34803 TAP_TAPCELL_ROW_90_2484
*34804 TAP_TAPCELL_ROW_90_2485
*34805 TAP_TAPCELL_ROW_90_2486
*34806 TAP_TAPCELL_ROW_90_2487
*34807 TAP_TAPCELL_ROW_90_2488
*34808 TAP_TAPCELL_ROW_90_2489
*34809 TAP_TAPCELL_ROW_90_2490
*34810 TAP_TAPCELL_ROW_90_2491
*34811 TAP_TAPCELL_ROW_90_2492
*34812 TAP_TAPCELL_ROW_90_2493
*34813 TAP_TAPCELL_ROW_91_2494
*34814 TAP_TAPCELL_ROW_91_2495
*34815 TAP_TAPCELL_ROW_91_2496
*34816 TAP_TAPCELL_ROW_91_2497
*34817 TAP_TAPCELL_ROW_91_2498
*34818 TAP_TAPCELL_ROW_91_2499
*34819 TAP_TAPCELL_ROW_91_2500
*34820 TAP_TAPCELL_ROW_91_2501
*34821 TAP_TAPCELL_ROW_91_2502
*34822 TAP_TAPCELL_ROW_91_2503
*34823 TAP_TAPCELL_ROW_91_2504
*34824 TAP_TAPCELL_ROW_91_2505
*34825 TAP_TAPCELL_ROW_91_2506
*34826 TAP_TAPCELL_ROW_91_2507
*34827 TAP_TAPCELL_ROW_91_2508
*34828 TAP_TAPCELL_ROW_91_2509
*34829 TAP_TAPCELL_ROW_91_2510
*34830 TAP_TAPCELL_ROW_91_2511
*34831 TAP_TAPCELL_ROW_91_2512
*34832 TAP_TAPCELL_ROW_91_2513
*34833 TAP_TAPCELL_ROW_91_2514
*34834 TAP_TAPCELL_ROW_91_2515
*34835 TAP_TAPCELL_ROW_92_2516
*34836 TAP_TAPCELL_ROW_92_2517
*34837 TAP_TAPCELL_ROW_92_2518
*34838 TAP_TAPCELL_ROW_92_2519
*34839 TAP_TAPCELL_ROW_92_2520
*34840 TAP_TAPCELL_ROW_92_2521
*34841 TAP_TAPCELL_ROW_92_2522
*34842 TAP_TAPCELL_ROW_92_2523
*34843 TAP_TAPCELL_ROW_92_2524
*34844 TAP_TAPCELL_ROW_92_2525
*34845 TAP_TAPCELL_ROW_92_2526
*34846 TAP_TAPCELL_ROW_92_2527
*34847 TAP_TAPCELL_ROW_92_2528
*34848 TAP_TAPCELL_ROW_92_2529
*34849 TAP_TAPCELL_ROW_92_2530
*34850 TAP_TAPCELL_ROW_92_2531
*34851 TAP_TAPCELL_ROW_92_2532
*34852 TAP_TAPCELL_ROW_92_2533
*34853 TAP_TAPCELL_ROW_92_2534
*34854 TAP_TAPCELL_ROW_92_2535
*34855 TAP_TAPCELL_ROW_92_2536
*34856 TAP_TAPCELL_ROW_92_2537
*34857 TAP_TAPCELL_ROW_92_2538
*34858 TAP_TAPCELL_ROW_93_2539
*34859 TAP_TAPCELL_ROW_93_2540
*34860 TAP_TAPCELL_ROW_93_2541
*34861 TAP_TAPCELL_ROW_93_2542
*34862 TAP_TAPCELL_ROW_93_2543
*34863 TAP_TAPCELL_ROW_93_2544
*34864 TAP_TAPCELL_ROW_93_2545
*34865 TAP_TAPCELL_ROW_93_2546
*34866 TAP_TAPCELL_ROW_93_2547
*34867 TAP_TAPCELL_ROW_93_2548
*34868 TAP_TAPCELL_ROW_93_2549
*34869 TAP_TAPCELL_ROW_93_2550
*34870 TAP_TAPCELL_ROW_93_2551
*34871 TAP_TAPCELL_ROW_93_2552
*34872 TAP_TAPCELL_ROW_93_2553
*34873 TAP_TAPCELL_ROW_93_2554
*34874 TAP_TAPCELL_ROW_93_2555
*34875 TAP_TAPCELL_ROW_93_2556
*34876 TAP_TAPCELL_ROW_93_2557
*34877 TAP_TAPCELL_ROW_93_2558
*34878 TAP_TAPCELL_ROW_93_2559
*34879 TAP_TAPCELL_ROW_93_2560
*34880 TAP_TAPCELL_ROW_94_2561
*34881 TAP_TAPCELL_ROW_94_2562
*34882 TAP_TAPCELL_ROW_94_2563
*34883 TAP_TAPCELL_ROW_94_2564
*34884 TAP_TAPCELL_ROW_94_2565
*34885 TAP_TAPCELL_ROW_94_2566
*34886 TAP_TAPCELL_ROW_94_2567
*34887 TAP_TAPCELL_ROW_94_2568
*34888 TAP_TAPCELL_ROW_94_2569
*34889 TAP_TAPCELL_ROW_94_2570
*34890 TAP_TAPCELL_ROW_94_2571
*34891 TAP_TAPCELL_ROW_94_2572
*34892 TAP_TAPCELL_ROW_94_2573
*34893 TAP_TAPCELL_ROW_94_2574
*34894 TAP_TAPCELL_ROW_94_2575
*34895 TAP_TAPCELL_ROW_94_2576
*34896 TAP_TAPCELL_ROW_94_2577
*34897 TAP_TAPCELL_ROW_94_2578
*34898 TAP_TAPCELL_ROW_94_2579
*34899 TAP_TAPCELL_ROW_94_2580
*34900 TAP_TAPCELL_ROW_94_2581
*34901 TAP_TAPCELL_ROW_94_2582
*34902 TAP_TAPCELL_ROW_94_2583
*34903 TAP_TAPCELL_ROW_95_2584
*34904 TAP_TAPCELL_ROW_95_2585
*34905 TAP_TAPCELL_ROW_95_2586
*34906 TAP_TAPCELL_ROW_95_2587
*34907 TAP_TAPCELL_ROW_95_2588
*34908 TAP_TAPCELL_ROW_95_2589
*34909 TAP_TAPCELL_ROW_95_2590
*34910 TAP_TAPCELL_ROW_95_2591
*34911 TAP_TAPCELL_ROW_95_2592
*34912 TAP_TAPCELL_ROW_95_2593
*34913 TAP_TAPCELL_ROW_95_2594
*34914 TAP_TAPCELL_ROW_95_2595
*34915 TAP_TAPCELL_ROW_95_2596
*34916 TAP_TAPCELL_ROW_95_2597
*34917 TAP_TAPCELL_ROW_95_2598
*34918 TAP_TAPCELL_ROW_95_2599
*34919 TAP_TAPCELL_ROW_95_2600
*34920 TAP_TAPCELL_ROW_95_2601
*34921 TAP_TAPCELL_ROW_95_2602
*34922 TAP_TAPCELL_ROW_95_2603
*34923 TAP_TAPCELL_ROW_95_2604
*34924 TAP_TAPCELL_ROW_95_2605
*34925 TAP_TAPCELL_ROW_96_2606
*34926 TAP_TAPCELL_ROW_96_2607
*34927 TAP_TAPCELL_ROW_96_2608
*34928 TAP_TAPCELL_ROW_96_2609
*34929 TAP_TAPCELL_ROW_96_2610
*34930 TAP_TAPCELL_ROW_96_2611
*34931 TAP_TAPCELL_ROW_96_2612
*34932 TAP_TAPCELL_ROW_96_2613
*34933 TAP_TAPCELL_ROW_96_2614
*34934 TAP_TAPCELL_ROW_96_2615
*34935 TAP_TAPCELL_ROW_96_2616
*34936 TAP_TAPCELL_ROW_96_2617
*34937 TAP_TAPCELL_ROW_96_2618
*34938 TAP_TAPCELL_ROW_96_2619
*34939 TAP_TAPCELL_ROW_96_2620
*34940 TAP_TAPCELL_ROW_96_2621
*34941 TAP_TAPCELL_ROW_96_2622
*34942 TAP_TAPCELL_ROW_96_2623
*34943 TAP_TAPCELL_ROW_96_2624
*34944 TAP_TAPCELL_ROW_96_2625
*34945 TAP_TAPCELL_ROW_96_2626
*34946 TAP_TAPCELL_ROW_96_2627
*34947 TAP_TAPCELL_ROW_96_2628
*34948 TAP_TAPCELL_ROW_97_2629
*34949 TAP_TAPCELL_ROW_97_2630
*34950 TAP_TAPCELL_ROW_97_2631
*34951 TAP_TAPCELL_ROW_97_2632
*34952 TAP_TAPCELL_ROW_97_2633
*34953 TAP_TAPCELL_ROW_97_2634
*34954 TAP_TAPCELL_ROW_97_2635
*34955 TAP_TAPCELL_ROW_97_2636
*34956 TAP_TAPCELL_ROW_97_2637
*34957 TAP_TAPCELL_ROW_97_2638
*34958 TAP_TAPCELL_ROW_97_2639
*34959 TAP_TAPCELL_ROW_97_2640
*34960 TAP_TAPCELL_ROW_97_2641
*34961 TAP_TAPCELL_ROW_97_2642
*34962 TAP_TAPCELL_ROW_97_2643
*34963 TAP_TAPCELL_ROW_97_2644
*34964 TAP_TAPCELL_ROW_97_2645
*34965 TAP_TAPCELL_ROW_97_2646
*34966 TAP_TAPCELL_ROW_97_2647
*34967 TAP_TAPCELL_ROW_97_2648
*34968 TAP_TAPCELL_ROW_97_2649
*34969 TAP_TAPCELL_ROW_97_2650
*34970 TAP_TAPCELL_ROW_98_2651
*34971 TAP_TAPCELL_ROW_98_2652
*34972 TAP_TAPCELL_ROW_98_2653
*34973 TAP_TAPCELL_ROW_98_2654
*34974 TAP_TAPCELL_ROW_98_2655
*34975 TAP_TAPCELL_ROW_98_2656
*34976 TAP_TAPCELL_ROW_98_2657
*34977 TAP_TAPCELL_ROW_98_2658
*34978 TAP_TAPCELL_ROW_98_2659
*34979 TAP_TAPCELL_ROW_98_2660
*34980 TAP_TAPCELL_ROW_98_2661
*34981 TAP_TAPCELL_ROW_98_2662
*34982 TAP_TAPCELL_ROW_98_2663
*34983 TAP_TAPCELL_ROW_98_2664
*34984 TAP_TAPCELL_ROW_98_2665
*34985 TAP_TAPCELL_ROW_98_2666
*34986 TAP_TAPCELL_ROW_98_2667
*34987 TAP_TAPCELL_ROW_98_2668
*34988 TAP_TAPCELL_ROW_98_2669
*34989 TAP_TAPCELL_ROW_98_2670
*34990 TAP_TAPCELL_ROW_98_2671
*34991 TAP_TAPCELL_ROW_98_2672
*34992 TAP_TAPCELL_ROW_98_2673
*34993 TAP_TAPCELL_ROW_99_2674
*34994 TAP_TAPCELL_ROW_99_2675
*34995 TAP_TAPCELL_ROW_99_2676
*34996 TAP_TAPCELL_ROW_99_2677
*34997 TAP_TAPCELL_ROW_99_2678
*34998 TAP_TAPCELL_ROW_99_2679
*34999 TAP_TAPCELL_ROW_99_2680
*35000 TAP_TAPCELL_ROW_99_2681
*35001 TAP_TAPCELL_ROW_99_2682
*35002 TAP_TAPCELL_ROW_99_2683
*35003 TAP_TAPCELL_ROW_99_2684
*35004 TAP_TAPCELL_ROW_99_2685
*35005 TAP_TAPCELL_ROW_99_2686
*35006 TAP_TAPCELL_ROW_99_2687
*35007 TAP_TAPCELL_ROW_99_2688
*35008 TAP_TAPCELL_ROW_99_2689
*35009 TAP_TAPCELL_ROW_99_2690
*35010 TAP_TAPCELL_ROW_99_2691
*35011 TAP_TAPCELL_ROW_99_2692
*35012 TAP_TAPCELL_ROW_99_2693
*35013 TAP_TAPCELL_ROW_99_2694
*35014 TAP_TAPCELL_ROW_99_2695
*35015 TAP_TAPCELL_ROW_9_649
*35016 TAP_TAPCELL_ROW_9_650
*35017 TAP_TAPCELL_ROW_9_651
*35018 TAP_TAPCELL_ROW_9_652
*35019 TAP_TAPCELL_ROW_9_653
*35020 TAP_TAPCELL_ROW_9_654
*35021 TAP_TAPCELL_ROW_9_655
*35022 TAP_TAPCELL_ROW_9_656
*35023 TAP_TAPCELL_ROW_9_657
*35024 TAP_TAPCELL_ROW_9_658
*35025 TAP_TAPCELL_ROW_9_659
*35026 TAP_TAPCELL_ROW_9_660
*35027 TAP_TAPCELL_ROW_9_661
*35028 TAP_TAPCELL_ROW_9_662
*35029 TAP_TAPCELL_ROW_9_663
*35030 TAP_TAPCELL_ROW_9_664
*35031 TAP_TAPCELL_ROW_9_665
*35032 TAP_TAPCELL_ROW_9_666
*35033 TAP_TAPCELL_ROW_9_667
*35034 TAP_TAPCELL_ROW_9_668
*35035 TAP_TAPCELL_ROW_9_669
*35036 TAP_TAPCELL_ROW_9_670
*35037 _000_
*35038 _253_
*35039 _254_
*35040 _255_
*35041 _256_
*35042 _257_
*35043 _258_
*35044 _259_
*35045 _260_
*35046 _261_
*35047 _262_
*35048 _263_
*35049 _264_
*35050 _265_
*35051 _266_
*35052 _267_
*35053 _268_
*35054 _269_
*35055 _270_
*35056 _271_
*35057 _272_
*35058 _273_
*35059 _274_
*35060 _275_
*35061 edge_sensor_glue_100
*35062 edge_sensor_glue_101
*35063 edge_sensor_glue_102
*35064 edge_sensor_glue_103
*35065 edge_sensor_glue_104
*35066 edge_sensor_glue_105
*35067 edge_sensor_glue_106
*35068 edge_sensor_glue_107
*35069 edge_sensor_glue_108
*35070 edge_sensor_glue_109
*35071 edge_sensor_glue_110
*35072 edge_sensor_glue_111
*35073 edge_sensor_glue_112
*35074 edge_sensor_glue_113
*35075 edge_sensor_glue_114
*35076 edge_sensor_glue_115
*35077 edge_sensor_glue_116
*35078 edge_sensor_glue_117
*35079 edge_sensor_glue_118
*35080 edge_sensor_glue_119
*35081 edge_sensor_glue_120
*35082 edge_sensor_glue_121
*35083 edge_sensor_glue_122
*35084 edge_sensor_glue_123
*35085 edge_sensor_glue_124
*35086 edge_sensor_glue_125
*35087 edge_sensor_glue_126
*35088 edge_sensor_glue_127
*35089 edge_sensor_glue_128
*35090 edge_sensor_glue_129
*35091 edge_sensor_glue_130
*35092 edge_sensor_glue_131
*35093 edge_sensor_glue_132
*35094 edge_sensor_glue_133
*35095 edge_sensor_glue_134
*35096 edge_sensor_glue_135
*35097 edge_sensor_glue_136
*35098 edge_sensor_glue_137
*35099 edge_sensor_glue_138
*35100 edge_sensor_glue_139
*35101 edge_sensor_glue_140
*35102 edge_sensor_glue_141
*35103 edge_sensor_glue_142
*35104 edge_sensor_glue_143
*35105 edge_sensor_glue_144
*35106 edge_sensor_glue_145
*35107 edge_sensor_glue_146
*35108 edge_sensor_glue_147
*35109 edge_sensor_glue_148
*35110 edge_sensor_glue_149
*35111 edge_sensor_glue_150
*35112 edge_sensor_glue_151
*35113 edge_sensor_glue_152
*35114 edge_sensor_glue_153
*35115 edge_sensor_glue_154
*35116 edge_sensor_glue_155
*35117 edge_sensor_glue_156
*35118 edge_sensor_glue_157
*35119 edge_sensor_glue_158
*35120 edge_sensor_glue_159
*35121 edge_sensor_glue_160
*35122 edge_sensor_glue_161
*35123 edge_sensor_glue_162
*35124 edge_sensor_glue_163
*35125 edge_sensor_glue_164
*35126 edge_sensor_glue_165
*35127 edge_sensor_glue_166
*35128 edge_sensor_glue_167
*35129 edge_sensor_glue_168
*35130 edge_sensor_glue_169
*35131 edge_sensor_glue_170
*35132 edge_sensor_glue_171
*35133 edge_sensor_glue_172
*35134 edge_sensor_glue_173
*35135 edge_sensor_glue_174
*35136 edge_sensor_glue_175
*35137 edge_sensor_glue_176
*35138 edge_sensor_glue_177
*35139 edge_sensor_glue_178
*35140 edge_sensor_glue_179
*35141 edge_sensor_glue_180
*35142 edge_sensor_glue_181
*35143 edge_sensor_glue_182
*35144 edge_sensor_glue_183
*35145 edge_sensor_glue_184
*35146 edge_sensor_glue_185
*35147 edge_sensor_glue_186
*35148 edge_sensor_glue_187
*35149 edge_sensor_glue_188
*35150 edge_sensor_glue_189
*35151 edge_sensor_glue_190
*35152 edge_sensor_glue_191
*35153 edge_sensor_glue_192
*35154 edge_sensor_glue_193
*35155 edge_sensor_glue_194
*35156 edge_sensor_glue_195
*35157 edge_sensor_glue_196
*35158 edge_sensor_glue_197
*35159 edge_sensor_glue_198
*35160 edge_sensor_glue_199
*35161 edge_sensor_glue_200
*35162 edge_sensor_glue_201
*35163 edge_sensor_glue_202
*35164 edge_sensor_glue_203
*35165 edge_sensor_glue_204
*35166 edge_sensor_glue_205
*35167 edge_sensor_glue_206
*35168 edge_sensor_glue_207
*35169 edge_sensor_glue_208
*35170 edge_sensor_glue_209
*35171 edge_sensor_glue_210
*35172 edge_sensor_glue_211
*35173 edge_sensor_glue_212
*35174 edge_sensor_glue_213
*35175 edge_sensor_glue_214
*35176 edge_sensor_glue_215
*35177 edge_sensor_glue_216
*35178 edge_sensor_glue_217
*35179 edge_sensor_glue_218
*35180 edge_sensor_glue_219
*35181 edge_sensor_glue_220
*35182 edge_sensor_glue_221
*35183 edge_sensor_glue_222
*35184 edge_sensor_glue_223
*35185 edge_sensor_glue_224
*35186 edge_sensor_glue_225
*35187 edge_sensor_glue_226
*35188 edge_sensor_glue_227
*35189 edge_sensor_glue_228
*35190 edge_sensor_glue_229
*35191 edge_sensor_glue_230
*35192 edge_sensor_glue_231
*35193 edge_sensor_glue_232
*35194 edge_sensor_glue_233
*35195 edge_sensor_glue_234
*35196 edge_sensor_glue_235
*35197 edge_sensor_glue_236
*35198 edge_sensor_glue_237
*35199 edge_sensor_glue_238
*35200 edge_sensor_glue_239
*35201 edge_sensor_glue_240
*35202 edge_sensor_glue_241
*35203 edge_sensor_glue_242
*35204 edge_sensor_glue_243
*35205 edge_sensor_glue_244
*35206 edge_sensor_glue_245
*35207 edge_sensor_glue_246
*35208 edge_sensor_glue_247
*35209 edge_sensor_glue_248
*35210 edge_sensor_glue_249
*35211 edge_sensor_glue_250
*35212 edge_sensor_glue_251
*35213 edge_sensor_glue_252
*35214 edge_sensor_glue_253
*35215 edge_sensor_glue_254
*35216 edge_sensor_glue_255
*35217 edge_sensor_glue_256
*35218 edge_sensor_glue_257
*35219 edge_sensor_glue_258
*35220 edge_sensor_glue_259
*35221 edge_sensor_glue_26
*35222 edge_sensor_glue_260
*35223 edge_sensor_glue_261
*35224 edge_sensor_glue_262
*35225 edge_sensor_glue_263
*35226 edge_sensor_glue_264
*35227 edge_sensor_glue_265
*35228 edge_sensor_glue_266
*35229 edge_sensor_glue_267
*35230 edge_sensor_glue_268
*35231 edge_sensor_glue_269
*35232 edge_sensor_glue_27
*35233 edge_sensor_glue_270
*35234 edge_sensor_glue_271
*35235 edge_sensor_glue_272
*35236 edge_sensor_glue_273
*35237 edge_sensor_glue_274
*35238 edge_sensor_glue_275
*35239 edge_sensor_glue_276
*35240 edge_sensor_glue_277
*35241 edge_sensor_glue_28
*35242 edge_sensor_glue_29
*35243 edge_sensor_glue_30
*35244 edge_sensor_glue_31
*35245 edge_sensor_glue_32
*35246 edge_sensor_glue_33
*35247 edge_sensor_glue_34
*35248 edge_sensor_glue_35
*35249 edge_sensor_glue_36
*35250 edge_sensor_glue_37
*35251 edge_sensor_glue_38
*35252 edge_sensor_glue_39
*35253 edge_sensor_glue_40
*35254 edge_sensor_glue_41
*35255 edge_sensor_glue_42
*35256 edge_sensor_glue_43
*35257 edge_sensor_glue_44
*35258 edge_sensor_glue_45
*35259 edge_sensor_glue_46
*35260 edge_sensor_glue_47
*35261 edge_sensor_glue_48
*35262 edge_sensor_glue_49
*35263 edge_sensor_glue_50
*35264 edge_sensor_glue_51
*35265 edge_sensor_glue_52
*35266 edge_sensor_glue_53
*35267 edge_sensor_glue_54
*35268 edge_sensor_glue_55
*35269 edge_sensor_glue_56
*35270 edge_sensor_glue_57
*35271 edge_sensor_glue_58
*35272 edge_sensor_glue_59
*35273 edge_sensor_glue_60
*35274 edge_sensor_glue_61
*35275 edge_sensor_glue_62
*35276 edge_sensor_glue_63
*35277 edge_sensor_glue_64
*35278 edge_sensor_glue_65
*35279 edge_sensor_glue_66
*35280 edge_sensor_glue_67
*35281 edge_sensor_glue_68
*35282 edge_sensor_glue_69
*35283 edge_sensor_glue_70
*35284 edge_sensor_glue_71
*35285 edge_sensor_glue_72
*35286 edge_sensor_glue_73
*35287 edge_sensor_glue_74
*35288 edge_sensor_glue_75
*35289 edge_sensor_glue_76
*35290 edge_sensor_glue_77
*35291 edge_sensor_glue_78
*35292 edge_sensor_glue_79
*35293 edge_sensor_glue_80
*35294 edge_sensor_glue_81
*35295 edge_sensor_glue_82
*35296 edge_sensor_glue_83
*35297 edge_sensor_glue_84
*35298 edge_sensor_glue_85
*35299 edge_sensor_glue_86
*35300 edge_sensor_glue_87
*35301 edge_sensor_glue_88
*35302 edge_sensor_glue_89
*35303 edge_sensor_glue_90
*35304 edge_sensor_glue_91
*35305 edge_sensor_glue_92
*35306 edge_sensor_glue_93
*35307 edge_sensor_glue_94
*35308 edge_sensor_glue_95
*35309 edge_sensor_glue_96
*35310 edge_sensor_glue_97
*35311 edge_sensor_glue_98
*35312 edge_sensor_glue_99
*35313 input1
*35314 output10
*35315 output11
*35316 output12
*35317 output13
*35318 output14
*35319 output15
*35320 output16
*35321 output17
*35322 output18
*35323 output19
*35324 output2
*35325 output20
*35326 output21
*35327 output22
*35328 output23
*35329 output24
*35330 output25
*35331 output3
*35332 output4
*35333 output5
*35334 output6
*35335 output7
*35336 output8
*35337 output9

*PORTS
clk_o O
fft_done_i I
fft_error_i I
intr_spi_idle_i I
intr_spi_rx_full_i I
intr_spi_tx_empty_i I
intr_uart_rx_break_err_i I
intr_uart_rx_frame_err_i I
intr_uart_rx_overflow_i I
intr_uart_rx_parity_err_i I
intr_uart_rx_timeout_i I
intr_uart_rx_watermark_i I
intr_uart_tx_done_i I
intr_uart_tx_empty_i I
intr_uart_tx_watermark_i I
intr_vec_o[0] O
intr_vec_o[10] O
intr_vec_o[11] O
intr_vec_o[12] O
intr_vec_o[13] O
intr_vec_o[14] O
intr_vec_o[15] O
intr_vec_o[16] O
intr_vec_o[17] O
intr_vec_o[18] O
intr_vec_o[19] O
intr_vec_o[1] O
intr_vec_o[20] O
intr_vec_o[21] O
intr_vec_o[22] O
intr_vec_o[23] O
intr_vec_o[24] O
intr_vec_o[25] O
intr_vec_o[26] O
intr_vec_o[27] O
intr_vec_o[28] O
intr_vec_o[29] O
intr_vec_o[2] O
intr_vec_o[30] O
intr_vec_o[31] O
intr_vec_o[3] O
intr_vec_o[4] O
intr_vec_o[5] O
intr_vec_o[6] O
intr_vec_o[7] O
intr_vec_o[8] O
intr_vec_o[9] O
io_in[0] I
io_in[10] I
io_in[11] I
io_in[12] I
io_in[13] I
io_in[14] I
io_in[15] I
io_in[16] I
io_in[17] I
io_in[18] I
io_in[19] I
io_in[1] I
io_in[20] I
io_in[21] I
io_in[22] I
io_in[23] I
io_in[24] I
io_in[25] I
io_in[26] I
io_in[27] I
io_in[28] I
io_in[29] I
io_in[2] I
io_in[30] I
io_in[31] I
io_in[32] I
io_in[33] I
io_in[34] I
io_in[35] I
io_in[36] I
io_in[37] I
io_in[3] I
io_in[4] I
io_in[5] I
io_in[6] I
io_in[7] I
io_in[8] I
io_in[9] I
io_oeb[0] O
io_oeb[10] O
io_oeb[11] O
io_oeb[12] O
io_oeb[13] O
io_oeb[14] O
io_oeb[15] O
io_oeb[16] O
io_oeb[17] O
io_oeb[18] O
io_oeb[19] O
io_oeb[1] O
io_oeb[20] O
io_oeb[21] O
io_oeb[22] O
io_oeb[23] O
io_oeb[24] O
io_oeb[25] O
io_oeb[26] O
io_oeb[27] O
io_oeb[28] O
io_oeb[29] O
io_oeb[2] O
io_oeb[30] O
io_oeb[31] O
io_oeb[32] O
io_oeb[33] O
io_oeb[34] O
io_oeb[35] O
io_oeb[36] O
io_oeb[37] O
io_oeb[3] O
io_oeb[4] O
io_oeb[5] O
io_oeb[6] O
io_oeb[7] O
io_oeb[8] O
io_oeb[9] O
io_out[0] O
io_out[10] O
io_out[11] O
io_out[12] O
io_out[13] O
io_out[14] O
io_out[15] O
io_out[16] O
io_out[17] O
io_out[18] O
io_out[19] O
io_out[1] O
io_out[20] O
io_out[21] O
io_out[22] O
io_out[23] O
io_out[24] O
io_out[25] O
io_out[26] O
io_out[27] O
io_out[28] O
io_out[29] O
io_out[2] O
io_out[30] O
io_out[31] O
io_out[32] O
io_out[33] O
io_out[34] O
io_out[35] O
io_out[36] O
io_out[37] O
io_out[3] O
io_out[4] O
io_out[5] O
io_out[6] O
io_out[7] O
io_out[8] O
io_out[9] O
la_data_in[0] I
la_data_in[100] I
la_data_in[101] I
la_data_in[102] I
la_data_in[103] I
la_data_in[104] I
la_data_in[105] I
la_data_in[106] I
la_data_in[107] I
la_data_in[108] I
la_data_in[109] I
la_data_in[10] I
la_data_in[110] I
la_data_in[111] I
la_data_in[112] I
la_data_in[113] I
la_data_in[114] I
la_data_in[115] I
la_data_in[116] I
la_data_in[117] I
la_data_in[118] I
la_data_in[119] I
la_data_in[11] I
la_data_in[120] I
la_data_in[121] I
la_data_in[122] I
la_data_in[123] I
la_data_in[124] I
la_data_in[125] I
la_data_in[126] I
la_data_in[127] I
la_data_in[12] I
la_data_in[13] I
la_data_in[14] I
la_data_in[15] I
la_data_in[16] I
la_data_in[17] I
la_data_in[18] I
la_data_in[19] I
la_data_in[1] I
la_data_in[20] I
la_data_in[21] I
la_data_in[22] I
la_data_in[23] I
la_data_in[24] I
la_data_in[25] I
la_data_in[26] I
la_data_in[27] I
la_data_in[28] I
la_data_in[29] I
la_data_in[2] I
la_data_in[30] I
la_data_in[31] I
la_data_in[32] I
la_data_in[33] I
la_data_in[34] I
la_data_in[35] I
la_data_in[36] I
la_data_in[37] I
la_data_in[38] I
la_data_in[39] I
la_data_in[3] I
la_data_in[40] I
la_data_in[41] I
la_data_in[42] I
la_data_in[43] I
la_data_in[44] I
la_data_in[45] I
la_data_in[46] I
la_data_in[47] I
la_data_in[48] I
la_data_in[49] I
la_data_in[4] I
la_data_in[50] I
la_data_in[51] I
la_data_in[52] I
la_data_in[53] I
la_data_in[54] I
la_data_in[55] I
la_data_in[56] I
la_data_in[57] I
la_data_in[58] I
la_data_in[59] I
la_data_in[5] I
la_data_in[60] I
la_data_in[61] I
la_data_in[62] I
la_data_in[63] I
la_data_in[64] I
la_data_in[65] I
la_data_in[66] I
la_data_in[67] I
la_data_in[68] I
la_data_in[69] I
la_data_in[6] I
la_data_in[70] I
la_data_in[71] I
la_data_in[72] I
la_data_in[73] I
la_data_in[74] I
la_data_in[75] I
la_data_in[76] I
la_data_in[77] I
la_data_in[78] I
la_data_in[79] I
la_data_in[7] I
la_data_in[80] I
la_data_in[81] I
la_data_in[82] I
la_data_in[83] I
la_data_in[84] I
la_data_in[85] I
la_data_in[86] I
la_data_in[87] I
la_data_in[88] I
la_data_in[89] I
la_data_in[8] I
la_data_in[90] I
la_data_in[91] I
la_data_in[92] I
la_data_in[93] I
la_data_in[94] I
la_data_in[95] I
la_data_in[96] I
la_data_in[97] I
la_data_in[98] I
la_data_in[99] I
la_data_in[9] I
la_data_out[0] O
la_data_out[100] O
la_data_out[101] O
la_data_out[102] O
la_data_out[103] O
la_data_out[104] O
la_data_out[105] O
la_data_out[106] O
la_data_out[107] O
la_data_out[108] O
la_data_out[109] O
la_data_out[10] O
la_data_out[110] O
la_data_out[111] O
la_data_out[112] O
la_data_out[113] O
la_data_out[114] O
la_data_out[115] O
la_data_out[116] O
la_data_out[117] O
la_data_out[118] O
la_data_out[119] O
la_data_out[11] O
la_data_out[120] O
la_data_out[121] O
la_data_out[122] O
la_data_out[123] O
la_data_out[124] O
la_data_out[125] O
la_data_out[126] O
la_data_out[127] O
la_data_out[12] O
la_data_out[13] O
la_data_out[14] O
la_data_out[15] O
la_data_out[16] O
la_data_out[17] O
la_data_out[18] O
la_data_out[19] O
la_data_out[1] O
la_data_out[20] O
la_data_out[21] O
la_data_out[22] O
la_data_out[23] O
la_data_out[24] O
la_data_out[25] O
la_data_out[26] O
la_data_out[27] O
la_data_out[28] O
la_data_out[29] O
la_data_out[2] O
la_data_out[30] O
la_data_out[31] O
la_data_out[32] O
la_data_out[33] O
la_data_out[34] O
la_data_out[35] O
la_data_out[36] O
la_data_out[37] O
la_data_out[38] O
la_data_out[39] O
la_data_out[3] O
la_data_out[40] O
la_data_out[41] O
la_data_out[42] O
la_data_out[43] O
la_data_out[44] O
la_data_out[45] O
la_data_out[46] O
la_data_out[47] O
la_data_out[48] O
la_data_out[49] O
la_data_out[4] O
la_data_out[50] O
la_data_out[51] O
la_data_out[52] O
la_data_out[53] O
la_data_out[54] O
la_data_out[55] O
la_data_out[56] O
la_data_out[57] O
la_data_out[58] O
la_data_out[59] O
la_data_out[5] O
la_data_out[60] O
la_data_out[61] O
la_data_out[62] O
la_data_out[63] O
la_data_out[64] O
la_data_out[65] O
la_data_out[66] O
la_data_out[67] O
la_data_out[68] O
la_data_out[69] O
la_data_out[6] O
la_data_out[70] O
la_data_out[71] O
la_data_out[72] O
la_data_out[73] O
la_data_out[74] O
la_data_out[75] O
la_data_out[76] O
la_data_out[77] O
la_data_out[78] O
la_data_out[79] O
la_data_out[7] O
la_data_out[80] O
la_data_out[81] O
la_data_out[82] O
la_data_out[83] O
la_data_out[84] O
la_data_out[85] O
la_data_out[86] O
la_data_out[87] O
la_data_out[88] O
la_data_out[89] O
la_data_out[8] O
la_data_out[90] O
la_data_out[91] O
la_data_out[92] O
la_data_out[93] O
la_data_out[94] O
la_data_out[95] O
la_data_out[96] O
la_data_out[97] O
la_data_out[98] O
la_data_out[99] O
la_data_out[9] O
la_oenb[0] I
la_oenb[100] I
la_oenb[101] I
la_oenb[102] I
la_oenb[103] I
la_oenb[104] I
la_oenb[105] I
la_oenb[106] I
la_oenb[107] I
la_oenb[108] I
la_oenb[109] I
la_oenb[10] I
la_oenb[110] I
la_oenb[111] I
la_oenb[112] I
la_oenb[113] I
la_oenb[114] I
la_oenb[115] I
la_oenb[116] I
la_oenb[117] I
la_oenb[118] I
la_oenb[119] I
la_oenb[11] I
la_oenb[120] I
la_oenb[121] I
la_oenb[122] I
la_oenb[123] I
la_oenb[124] I
la_oenb[125] I
la_oenb[126] I
la_oenb[127] I
la_oenb[12] I
la_oenb[13] I
la_oenb[14] I
la_oenb[15] I
la_oenb[16] I
la_oenb[17] I
la_oenb[18] I
la_oenb[19] I
la_oenb[1] I
la_oenb[20] I
la_oenb[21] I
la_oenb[22] I
la_oenb[23] I
la_oenb[24] I
la_oenb[25] I
la_oenb[26] I
la_oenb[27] I
la_oenb[28] I
la_oenb[29] I
la_oenb[2] I
la_oenb[30] I
la_oenb[31] I
la_oenb[32] I
la_oenb[33] I
la_oenb[34] I
la_oenb[35] I
la_oenb[36] I
la_oenb[37] I
la_oenb[38] I
la_oenb[39] I
la_oenb[3] I
la_oenb[40] I
la_oenb[41] I
la_oenb[42] I
la_oenb[43] I
la_oenb[44] I
la_oenb[45] I
la_oenb[46] I
la_oenb[47] I
la_oenb[48] I
la_oenb[49] I
la_oenb[4] I
la_oenb[50] I
la_oenb[51] I
la_oenb[52] I
la_oenb[53] I
la_oenb[54] I
la_oenb[55] I
la_oenb[56] I
la_oenb[57] I
la_oenb[58] I
la_oenb[59] I
la_oenb[5] I
la_oenb[60] I
la_oenb[61] I
la_oenb[62] I
la_oenb[63] I
la_oenb[64] I
la_oenb[65] I
la_oenb[66] I
la_oenb[67] I
la_oenb[68] I
la_oenb[69] I
la_oenb[6] I
la_oenb[70] I
la_oenb[71] I
la_oenb[72] I
la_oenb[73] I
la_oenb[74] I
la_oenb[75] I
la_oenb[76] I
la_oenb[77] I
la_oenb[78] I
la_oenb[79] I
la_oenb[7] I
la_oenb[80] I
la_oenb[81] I
la_oenb[82] I
la_oenb[83] I
la_oenb[84] I
la_oenb[85] I
la_oenb[86] I
la_oenb[87] I
la_oenb[88] I
la_oenb[89] I
la_oenb[8] I
la_oenb[90] I
la_oenb[91] I
la_oenb[92] I
la_oenb[93] I
la_oenb[94] I
la_oenb[95] I
la_oenb[96] I
la_oenb[97] I
la_oenb[98] I
la_oenb[99] I
la_oenb[9] I
plic_irq_i I
rst_no O
spi_cs_ni I
spi_miso_o O
spi_mosi_i I
spi_sclk_i I
uart_rx_o O
uart_tx_i I
user_irq[0] O
user_irq[1] O
user_irq[2] O
wb_clk_i I
wb_rst_i I
wbs_ack_o O
wbs_adr_i[0] I
wbs_adr_i[10] I
wbs_adr_i[11] I
wbs_adr_i[12] I
wbs_adr_i[13] I
wbs_adr_i[14] I
wbs_adr_i[15] I
wbs_adr_i[16] I
wbs_adr_i[17] I
wbs_adr_i[18] I
wbs_adr_i[19] I
wbs_adr_i[1] I
wbs_adr_i[20] I
wbs_adr_i[21] I
wbs_adr_i[22] I
wbs_adr_i[23] I
wbs_adr_i[24] I
wbs_adr_i[25] I
wbs_adr_i[26] I
wbs_adr_i[27] I
wbs_adr_i[28] I
wbs_adr_i[29] I
wbs_adr_i[2] I
wbs_adr_i[30] I
wbs_adr_i[31] I
wbs_adr_i[3] I
wbs_adr_i[4] I
wbs_adr_i[5] I
wbs_adr_i[6] I
wbs_adr_i[7] I
wbs_adr_i[8] I
wbs_adr_i[9] I
wbs_cyc_i I
wbs_dat_i[0] I
wbs_dat_i[10] I
wbs_dat_i[11] I
wbs_dat_i[12] I
wbs_dat_i[13] I
wbs_dat_i[14] I
wbs_dat_i[15] I
wbs_dat_i[16] I
wbs_dat_i[17] I
wbs_dat_i[18] I
wbs_dat_i[19] I
wbs_dat_i[1] I
wbs_dat_i[20] I
wbs_dat_i[21] I
wbs_dat_i[22] I
wbs_dat_i[23] I
wbs_dat_i[24] I
wbs_dat_i[25] I
wbs_dat_i[26] I
wbs_dat_i[27] I
wbs_dat_i[28] I
wbs_dat_i[29] I
wbs_dat_i[2] I
wbs_dat_i[30] I
wbs_dat_i[31] I
wbs_dat_i[3] I
wbs_dat_i[4] I
wbs_dat_i[5] I
wbs_dat_i[6] I
wbs_dat_i[7] I
wbs_dat_i[8] I
wbs_dat_i[9] I
wbs_dat_o[0] O
wbs_dat_o[10] O
wbs_dat_o[11] O
wbs_dat_o[12] O
wbs_dat_o[13] O
wbs_dat_o[14] O
wbs_dat_o[15] O
wbs_dat_o[16] O
wbs_dat_o[17] O
wbs_dat_o[18] O
wbs_dat_o[19] O
wbs_dat_o[1] O
wbs_dat_o[20] O
wbs_dat_o[21] O
wbs_dat_o[22] O
wbs_dat_o[23] O
wbs_dat_o[24] O
wbs_dat_o[25] O
wbs_dat_o[26] O
wbs_dat_o[27] O
wbs_dat_o[28] O
wbs_dat_o[29] O
wbs_dat_o[2] O
wbs_dat_o[30] O
wbs_dat_o[31] O
wbs_dat_o[3] O
wbs_dat_o[4] O
wbs_dat_o[5] O
wbs_dat_o[6] O
wbs_dat_o[7] O
wbs_dat_o[8] O
wbs_dat_o[9] O
wbs_sel_i[0] I
wbs_sel_i[1] I
wbs_sel_i[2] I
wbs_sel_i[3] I
wbs_stb_i I
wbs_we_i I

*D_NET *3 0.000606007
*CONN
*P clk_o O
*I *35324:X O *D sky130_fd_sc_hd__buf_1
*CAP
1 clk_o 0.000227686
2 *35324:X 0.000227686
3 clk_o *35060:A 0.000127193
4 clk_o *676:10 2.34423e-05
*RES
1 *35324:X clk_o 18.699 
*END

*D_NET *4 0.00579638
*CONN
*P fft_done_i I
*I *35051:A I *D sky130_fd_sc_hd__clkbuf_1
*I *35057:A I *D sky130_fd_sc_hd__clkbuf_1
*CAP
1 fft_done_i 0.00221514
2 *35051:A 0
3 *35057:A 0.000126433
4 *4:13 0.00234157
5 *4:13 *35043:A 0.000812281
6 *4:13 *35046:A 9.90367e-05
7 *4:13 *35315:A 0.00010096
8 *4:13 *35318:A 0.00010096
*RES
1 fft_done_i *4:13 46.9821 
2 *4:13 *35057:A 11.4786 
3 *4:13 *35051:A 9.3 
*END

*D_NET *5 0.00254685
*CONN
*P fft_error_i I
*I *35052:A I *D sky130_fd_sc_hd__clkbuf_1
*CAP
1 fft_error_i 0.000863571
2 *35052:A 0.000863571
3 *35052:A intr_vec_o[13] 0.000194426
4 *35052:A intr_vec_o[25] 0.000398027
5 *35052:A io_out[1] 0
6 *35052:A *35335:A 0.000227254
*RES
1 fft_error_i *35052:A 42.925 
*END

*D_NET *6 0.00214966
*CONN
*P intr_spi_idle_i I
*I *35050:A I *D sky130_fd_sc_hd__clkbuf_1
*CAP
1 intr_spi_idle_i 0.00100791
2 *35050:A 0.00100791
3 *35050:A intr_vec_o[9] 0.000133843
4 *35050:A io_oeb[6] 0
5 *35050:A io_out[26] 0
6 *35050:A *35048:A 0
7 *35050:A *35320:A 0
*RES
1 intr_spi_idle_i *35050:A 42.3893 
*END

*D_NET *7 0.0150526
*CONN
*P intr_spi_rx_full_i I
*I *35049:A I *D sky130_fd_sc_hd__clkbuf_1
*I *690:DIODE I *D sky130_fd_sc_hd__diode_2
*CAP
1 intr_spi_rx_full_i 0.000304432
2 *35049:A 6.18962e-05
3 *690:DIODE 9.0319e-05
4 *7:17 0.000679766
5 *7:13 0.00508177
6 *7:11 0.00485865
7 *690:DIODE io_oeb[37] 0
8 *690:DIODE *35332:A 0
9 *690:DIODE *83:9 7.7409e-05
10 *7:11 wbs_dat_o[10] 5.77714e-05
11 *7:13 io_out[12] 0
12 *7:13 la_data_out[52] 0
13 *7:13 la_data_out[76] 0
14 *7:13 wbs_dat_o[10] 0
15 *7:13 *35313:A 0
16 *7:13 *12:17 0.00375506
17 *7:17 io_out[0] 0
18 *7:17 *35332:A 8.55687e-05
*RES
1 intr_spi_rx_full_i *7:11 4.71347 
2 *7:11 *7:13 110.17 
3 *7:13 *7:17 14.0714 
4 *7:17 *690:DIODE 20.2464 
5 *7:17 *35049:A 10.2464 
*END

*D_NET *8 0.00143183
*CONN
*P intr_spi_tx_empty_i I
*I *35048:A I *D sky130_fd_sc_hd__clkbuf_1
*CAP
1 intr_spi_tx_empty_i 0.000715914
2 *35048:A 0.000715914
3 *35048:A intr_vec_o[9] 0
4 *35050:A *35048:A 0
*RES
1 intr_spi_tx_empty_i *35048:A 27.1036 
*END

*D_NET *9 0.00181613
*CONN
*P intr_uart_rx_break_err_i I
*I *35045:A I *D sky130_fd_sc_hd__clkbuf_1
*CAP
1 intr_uart_rx_break_err_i 0.000861626
2 *35045:A 0.000861626
3 *35045:A la_data_out[37] 9.28756e-05
*RES
1 intr_uart_rx_break_err_i *35045:A 26.8805 
*END

*D_NET *10 0.0114381
*CONN
*P intr_uart_rx_frame_err_i I
*I *691:DIODE I *D sky130_fd_sc_hd__diode_2
*I *35044:A I *D sky130_fd_sc_hd__clkbuf_1
*CAP
1 intr_uart_rx_frame_err_i 0.00148501
2 *691:DIODE 0
3 *35044:A 0.000194993
4 *10:17 0.000729203
5 *10:13 0.00403018
6 *10:11 0.00498099
7 *10:11 intr_vec_o[30] 0
8 *10:11 la_data_out[120] 0
9 *10:11 la_data_out[17] 0
10 *10:11 la_data_out[38] 1.77382e-05
11 *10:11 la_data_out[46] 0
*RES
1 intr_uart_rx_frame_err_i *10:11 31.3273 
2 *10:11 *10:13 71.4196 
3 *10:13 *10:17 13.25 
4 *10:17 *35044:A 21.6929 
5 *10:17 *691:DIODE 9.3 
*END

*D_NET *11 0.00203965
*CONN
*P intr_uart_rx_overflow_i I
*I *35043:A I *D sky130_fd_sc_hd__clkbuf_1
*CAP
1 intr_uart_rx_overflow_i 0.000613683
2 *35043:A 0.000613683
3 *35043:A intr_vec_o[4] 0
4 *35043:A *35315:A 0
5 *4:13 *35043:A 0.000812281
*RES
1 intr_uart_rx_overflow_i *35043:A 30.2821 
*END

*D_NET *12 0.0110466
*CONN
*P intr_uart_rx_parity_err_i I
*I *35047:A I *D sky130_fd_sc_hd__clkbuf_1
*CAP
1 intr_uart_rx_parity_err_i 0.000481262
2 *35047:A 0.000568281
3 *12:17 0.00304699
4 *12:15 0.00295997
5 *35047:A *35319:A 8.90314e-05
6 *12:15 io_oeb[22] 7.6156e-05
7 *12:15 la_data_out[104] 1.73465e-05
8 *12:15 la_data_out[20] 5.24642e-05
9 *12:17 io_out[0] 0
10 *7:13 *12:17 0.00375506
*RES
1 intr_uart_rx_parity_err_i *12:15 11.8123 
2 *12:15 *12:17 67.6696 
3 *12:17 *35047:A 24.2107 
*END

*D_NET *13 0.00176573
*CONN
*P intr_uart_rx_timeout_i I
*I *35046:A I *D sky130_fd_sc_hd__clkbuf_1
*CAP
1 intr_uart_rx_timeout_i 0.000739402
2 *35046:A 0.000739402
3 *35046:A intr_vec_o[7] 0
4 *35046:A io_oeb[7] 0
5 *35046:A *35318:A 0.000187893
6 *4:13 *35046:A 9.90367e-05
*RES
1 intr_uart_rx_timeout_i *35046:A 29.4607 
*END

*D_NET *14 0.0092089
*CONN
*P intr_uart_rx_watermark_i I
*I *35041:A I *D sky130_fd_sc_hd__clkbuf_1
*CAP
1 intr_uart_rx_watermark_i 0.000377192
2 *35041:A 0
3 *14:9 0.00354855
4 *14:7 0.00392574
5 *14:7 intr_vec_o[6] 0.000105162
6 *14:7 la_data_out[72] 8.38509e-05
7 *14:9 *688:12 0.00116841
*RES
1 intr_uart_rx_watermark_i *14:7 4.91087 
2 *14:7 *14:9 70.4018 
3 *14:9 *35041:A 13.8 
*END

*D_NET *15 0.00727489
*CONN
*P intr_uart_tx_done_i I
*I *35042:A I *D sky130_fd_sc_hd__clkbuf_1
*CAP
1 intr_uart_tx_done_i 6.06779e-05
2 *35042:A 0.000603344
3 *15:11 0.0033624
4 *15:9 0.00281973
5 *35042:A la_data_out[111] 0
6 *35042:A la_data_out[16] 0.000428748
7 *15:9 io_out[9] 0
8 *15:9 la_data_out[90] 0
*RES
1 intr_uart_tx_done_i *15:9 5.66071 
2 *15:9 *15:11 49.4107 
3 *15:11 *35042:A 32.6929 
*END

*D_NET *16 0.00190041
*CONN
*P intr_uart_tx_empty_i I
*I *35040:A I *D sky130_fd_sc_hd__clkbuf_1
*CAP
1 intr_uart_tx_empty_i 0.000583227
2 *35040:A 0.000583227
3 *35040:A la_data_out[85] 9.54485e-05
4 *35040:A *35039:A 0.000310008
5 *35040:A *683:12 0.000322453
6 *35040:A *688:12 6.05161e-06
*RES
1 intr_uart_tx_empty_i *35040:A 25.5227 
*END

*D_NET *17 0.00149748
*CONN
*P intr_uart_tx_watermark_i I
*I *35039:A I *D sky130_fd_sc_hd__clkbuf_1
*CAP
1 intr_uart_tx_watermark_i 0.000546013
2 *35039:A 0.000546013
3 *35039:A io_oeb[32] 9.54485e-05
4 *35040:A *35039:A 0.000310008
*RES
1 intr_uart_tx_watermark_i *35039:A 23.2377 
*END

*D_NET *18 0.000747999
*CONN
*P intr_vec_o[0] O
*I *35331:X O *D sky130_fd_sc_hd__buf_2
*CAP
1 intr_vec_o[0] 0.000298475
2 *35331:X 0.000298475
3 intr_vec_o[0] io_out[27] 7.64712e-05
4 intr_vec_o[0] la_data_out[45] 7.45781e-05
*RES
1 *35331:X intr_vec_o[0] 20.0884 
*END

*D_NET *19 0.000650669
*CONN
*P intr_vec_o[10] O
*I *35332:X O *D sky130_fd_sc_hd__buf_2
*CAP
1 intr_vec_o[10] 0.000270695
2 *35332:X 0.000270695
3 intr_vec_o[10] la_data_out[105] 8.6683e-05
4 intr_vec_o[10] la_data_out[95] 2.25951e-05
*RES
1 *35332:X intr_vec_o[10] 18.4675 
*END

*D_NET *20 0.000964093
*CONN
*P intr_vec_o[11] O
*I *35333:X O *D sky130_fd_sc_hd__buf_2
*CAP
1 intr_vec_o[11] 0.000454966
2 *35333:X 0.000454966
3 intr_vec_o[11] io_out[26] 0
4 intr_vec_o[11] io_out[3] 0
5 intr_vec_o[11] *35323:A 5.41609e-05
*RES
1 *35333:X intr_vec_o[11] 22.05 
*END

*D_NET *21 0.00169083
*CONN
*P intr_vec_o[12] O
*I *35334:X O *D sky130_fd_sc_hd__buf_2
*CAP
1 intr_vec_o[12] 0.000763738
2 *35334:X 0.000763738
3 intr_vec_o[12] io_out[6] 5.52302e-05
4 intr_vec_o[12] wbs_dat_o[26] 0
5 intr_vec_o[12] *35326:A 4.25523e-05
6 intr_vec_o[12] *35334:A 6.55681e-05
*RES
1 *35334:X intr_vec_o[12] 27.5679 
*END

*D_NET *22 0.00101917
*CONN
*P intr_vec_o[13] O
*I *35335:X O *D sky130_fd_sc_hd__buf_2
*CAP
1 intr_vec_o[13] 0.000371213
2 *35335:X 0.000371213
3 intr_vec_o[13] intr_vec_o[25] 8.23192e-05
4 *35052:A intr_vec_o[13] 0.000194426
*RES
1 *35335:X intr_vec_o[13] 22.05 
*END

*D_NET *23 0.00062501
*CONN
*P intr_vec_o[14] O
*I *35199:LO O *D sky130_fd_sc_hd__conb_1
*CAP
1 intr_vec_o[14] 0.000188907
2 *35199:LO 0.000188907
3 intr_vec_o[14] la_data_out[35] 0.000160513
4 intr_vec_o[14] la_data_out[97] 8.6683e-05
*RES
1 *35199:LO intr_vec_o[14] 18.3955 
*END

*D_NET *24 0.000498091
*CONN
*P intr_vec_o[15] O
*I *35200:LO O *D sky130_fd_sc_hd__conb_1
*CAP
1 intr_vec_o[15] 0.000160682
2 *35200:LO 0.000160682
3 intr_vec_o[15] la_data_out[65] 9.28756e-05
4 intr_vec_o[15] la_data_out[81] 8.38509e-05
*RES
1 *35200:LO intr_vec_o[15] 18.1949 
*END

*D_NET *25 0.000624873
*CONN
*P intr_vec_o[16] O
*I *35201:LO O *D sky130_fd_sc_hd__conb_1
*CAP
1 intr_vec_o[16] 0.000218275
2 *35201:LO 0.000218275
3 intr_vec_o[16] io_out[11] 9.28756e-05
4 intr_vec_o[16] la_data_out[65] 9.54485e-05
*RES
1 *35201:LO intr_vec_o[16] 19.4092 
*END

*D_NET *26 0.000878979
*CONN
*P intr_vec_o[17] O
*I *35202:LO O *D sky130_fd_sc_hd__conb_1
*CAP
1 intr_vec_o[17] 0.000411874
2 *35202:LO 0.000411874
3 intr_vec_o[17] intr_vec_o[29] 0
4 intr_vec_o[17] io_oeb[36] 0
5 intr_vec_o[17] *35321:A 5.52302e-05
*RES
1 *35202:LO intr_vec_o[17] 21.8357 
*END

*D_NET *27 0.000705606
*CONN
*P intr_vec_o[18] O
*I *35203:LO O *D sky130_fd_sc_hd__conb_1
*CAP
1 intr_vec_o[18] 0.000292512
2 *35203:LO 0.000292512
3 intr_vec_o[18] la_data_out[97] 9.7988e-05
4 intr_vec_o[18] wbs_dat_o[9] 2.25951e-05
5 intr_vec_o[18] *83:9 0
*RES
1 *35203:LO intr_vec_o[18] 19.6097 
*END

*D_NET *28 0.000990337
*CONN
*P intr_vec_o[19] O
*I *35204:LO O *D sky130_fd_sc_hd__conb_1
*CAP
1 intr_vec_o[19] 0.000495168
2 *35204:LO 0.000495168
3 intr_vec_o[19] io_out[6] 0
4 intr_vec_o[19] wbs_dat_o[14] 0
*RES
1 *35204:LO intr_vec_o[19] 23.6571 
*END

*D_NET *29 0.000662902
*CONN
*P intr_vec_o[1] O
*I *35336:X O *D sky130_fd_sc_hd__buf_2
*CAP
1 intr_vec_o[1] 0.000237289
2 *35336:X 0.000237289
3 intr_vec_o[1] io_oeb[15] 9.28756e-05
4 intr_vec_o[1] la_data_out[49] 9.54485e-05
5 intr_vec_o[1] *688:12 0
*RES
1 *35336:X intr_vec_o[1] 19.4813 
*END

*D_NET *30 0.000732252
*CONN
*P intr_vec_o[20] O
*I *35205:LO O *D sky130_fd_sc_hd__conb_1
*CAP
1 intr_vec_o[20] 0.000292817
2 *35205:LO 0.000292817
3 intr_vec_o[20] wbs_dat_o[13] 2.25951e-05
4 intr_vec_o[20] wbs_dat_o[8] 0.000124023
5 intr_vec_o[20] *83:9 0
*RES
1 *35205:LO intr_vec_o[20] 19.6097 
*END

*D_NET *31 0.00084331
*CONN
*P intr_vec_o[21] O
*I *35221:LO O *D sky130_fd_sc_hd__conb_1
*CAP
1 intr_vec_o[21] 0.000421655
2 *35221:LO 0.000421655
3 intr_vec_o[21] io_out[28] 0
*RES
1 *35221:LO intr_vec_o[21] 21.8357 
*END

*D_NET *32 0.00084331
*CONN
*P intr_vec_o[22] O
*I *35232:LO O *D sky130_fd_sc_hd__conb_1
*CAP
1 intr_vec_o[22] 0.000421655
2 *35232:LO 0.000421655
*RES
1 *35232:LO intr_vec_o[22] 21.8357 
*END

*D_NET *33 0.000564557
*CONN
*P intr_vec_o[23] O
*I *35241:LO O *D sky130_fd_sc_hd__conb_1
*CAP
1 intr_vec_o[23] 0.000188116
2 *35241:LO 0.000188116
3 intr_vec_o[23] intr_vec_o[27] 9.54485e-05
4 intr_vec_o[23] io_out[15] 9.28756e-05
*RES
1 *35241:LO intr_vec_o[23] 18.8021 
*END

*D_NET *34 0.000990337
*CONN
*P intr_vec_o[24] O
*I *35242:LO O *D sky130_fd_sc_hd__conb_1
*CAP
1 intr_vec_o[24] 0.000495168
2 *35242:LO 0.000495168
3 intr_vec_o[24] la_data_out[26] 0
4 intr_vec_o[24] wbs_dat_o[16] 0
*RES
1 *35242:LO intr_vec_o[24] 23.6571 
*END

*D_NET *35 0.00140704
*CONN
*P intr_vec_o[25] O
*I *35243:LO O *D sky130_fd_sc_hd__conb_1
*CAP
1 intr_vec_o[25] 0.000463347
2 *35243:LO 0.000463347
3 intr_vec_o[13] intr_vec_o[25] 8.23192e-05
4 *35052:A intr_vec_o[25] 0.000398027
*RES
1 *35243:LO intr_vec_o[25] 26.0143 
*END

*D_NET *36 0.000556983
*CONN
*P intr_vec_o[26] O
*I *35244:LO O *D sky130_fd_sc_hd__conb_1
*CAP
1 intr_vec_o[26] 0.000189186
2 *35244:LO 0.000189186
3 intr_vec_o[26] io_oeb[28] 8.31622e-05
4 intr_vec_o[26] la_data_out[49] 9.54485e-05
*RES
1 *35244:LO intr_vec_o[26] 18.8021 
*END

*D_NET *37 0.000684287
*CONN
*P intr_vec_o[27] O
*I *35245:LO O *D sky130_fd_sc_hd__conb_1
*CAP
1 intr_vec_o[27] 0.000247981
2 *35245:LO 0.000247981
3 intr_vec_o[27] io_oeb[16] 9.28756e-05
4 intr_vec_o[23] intr_vec_o[27] 9.54485e-05
*RES
1 *35245:LO intr_vec_o[27] 20.0163 
*END

*D_NET *38 0.00128658
*CONN
*P intr_vec_o[28] O
*I *35246:LO O *D sky130_fd_sc_hd__conb_1
*CAP
1 intr_vec_o[28] 0.000643288
2 *35246:LO 0.000643288
3 intr_vec_o[28] io_out[14] 0
4 intr_vec_o[28] la_data_out[118] 0
*RES
1 *35246:LO intr_vec_o[28] 26.2464 
*END

*D_NET *39 0.000874411
*CONN
*P intr_vec_o[29] O
*I *35247:LO O *D sky130_fd_sc_hd__conb_1
*CAP
1 intr_vec_o[29] 0.00040959
2 *35247:LO 0.00040959
3 intr_vec_o[29] io_out[20] 0
4 intr_vec_o[29] *35321:A 5.52302e-05
5 intr_vec_o[17] intr_vec_o[29] 0
*RES
1 *35247:LO intr_vec_o[29] 21.8357 
*END

*D_NET *40 0.000672231
*CONN
*P intr_vec_o[2] O
*I *35337:X O *D sky130_fd_sc_hd__buf_2
*CAP
1 intr_vec_o[2] 0.000240667
2 *35337:X 0.000240667
3 intr_vec_o[2] la_data_out[106] 9.54485e-05
4 intr_vec_o[2] la_data_out[22] 9.54485e-05
5 intr_vec_o[2] *683:12 0
*RES
1 *35337:X intr_vec_o[2] 19.4813 
*END

*D_NET *41 0.000577003
*CONN
*P intr_vec_o[30] O
*I *35248:LO O *D sky130_fd_sc_hd__conb_1
*CAP
1 intr_vec_o[30] 0.000196169
2 *35248:LO 0.000196169
3 intr_vec_o[30] io_oeb[10] 9.23325e-05
4 intr_vec_o[30] la_data_out[46] 9.23325e-05
5 *10:11 intr_vec_o[30] 0
*RES
1 *35248:LO intr_vec_o[30] 18.8021 
*END

*D_NET *42 0.000559875
*CONN
*P intr_vec_o[31] O
*I *35249:LO O *D sky130_fd_sc_hd__conb_1
*CAP
1 intr_vec_o[31] 0.000191574
2 *35249:LO 0.000191574
3 intr_vec_o[31] io_oeb[32] 8.38509e-05
4 intr_vec_o[31] io_oeb[5] 9.28756e-05
*RES
1 *35249:LO intr_vec_o[31] 18.8021 
*END

*D_NET *43 0.00114038
*CONN
*P intr_vec_o[3] O
*I *35314:X O *D sky130_fd_sc_hd__buf_2
*CAP
1 intr_vec_o[3] 0.000553186
2 *35314:X 0.000553186
3 intr_vec_o[3] io_out[16] 0
4 intr_vec_o[3] la_data_out[8] 0
5 intr_vec_o[3] *666:12 3.40128e-05
*RES
1 *35314:X intr_vec_o[3] 25.0857 
*END

*D_NET *44 0.00110019
*CONN
*P intr_vec_o[4] O
*I *35315:X O *D sky130_fd_sc_hd__buf_2
*CAP
1 intr_vec_o[4] 0.00053309
2 *35315:X 0.00053309
3 intr_vec_o[4] la_data_out[96] 0
4 intr_vec_o[4] *35315:A 3.40128e-05
5 *35043:A intr_vec_o[4] 0
*RES
1 *35315:X intr_vec_o[4] 24.675 
*END

*D_NET *45 0.000680547
*CONN
*P intr_vec_o[5] O
*I *35316:X O *D sky130_fd_sc_hd__buf_2
*CAP
1 intr_vec_o[5] 0.000214739
2 *35316:X 0.000214739
3 intr_vec_o[5] io_oeb[1] 9.54485e-05
4 intr_vec_o[5] la_data_out[67] 9.28756e-05
5 intr_vec_o[5] *35316:A 6.27457e-05
*RES
1 *35316:X intr_vec_o[5] 19.4813 
*END

*D_NET *46 0.000668743
*CONN
*P intr_vec_o[6] O
*I *35317:X O *D sky130_fd_sc_hd__buf_2
*CAP
1 intr_vec_o[6] 0.000234066
2 *35317:X 0.000234066
3 intr_vec_o[6] la_data_out[126] 9.54485e-05
4 *14:7 intr_vec_o[6] 0.000105162
*RES
1 *35317:X intr_vec_o[6] 19.4813 
*END

*D_NET *47 0.00110019
*CONN
*P intr_vec_o[7] O
*I *35318:X O *D sky130_fd_sc_hd__buf_2
*CAP
1 intr_vec_o[7] 0.00053309
2 *35318:X 0.00053309
3 intr_vec_o[7] wbs_dat_o[20] 0
4 intr_vec_o[7] *35318:A 3.40128e-05
5 *35046:A intr_vec_o[7] 0
*RES
1 *35318:X intr_vec_o[7] 24.675 
*END

*D_NET *48 0.000658949
*CONN
*P intr_vec_o[8] O
*I *35319:X O *D sky130_fd_sc_hd__buf_2
*CAP
1 intr_vec_o[8] 0.000260902
2 *35319:X 0.000260902
3 intr_vec_o[8] la_data_out[112] 0.000114549
4 intr_vec_o[8] wbs_dat_o[4] 2.25951e-05
*RES
1 *35319:X intr_vec_o[8] 18.4675 
*END

*D_NET *49 0.00143552
*CONN
*P intr_vec_o[9] O
*I *35320:X O *D sky130_fd_sc_hd__buf_2
*CAP
1 intr_vec_o[9] 0.000636382
2 *35320:X 0.000636382
3 intr_vec_o[9] io_out[26] 0
4 intr_vec_o[9] *35320:A 2.89114e-05
5 *35048:A intr_vec_o[9] 0
6 *35050:A intr_vec_o[9] 0.000133843
*RES
1 *35320:X intr_vec_o[9] 24.5143 
*END

*D_NET *50 0.0122819
*CONN
*P io_in[0] I
*I *35059:A I *D sky130_fd_sc_hd__clkbuf_1
*CAP
1 io_in[0] 0.000833505
2 *35059:A 0.00172015
3 *50:11 0.00488144
4 *50:9 0.00399479
5 *35059:A *666:12 0.0006731
6 *50:9 io_out[9] 0
7 *50:9 la_data_out[92] 0
8 *50:11 *666:12 0.000178946
*RES
1 io_in[0] *50:9 19.7321 
2 *50:9 *50:11 49.6161 
3 *50:11 *35059:A 42.9161 
*END

*D_NET *83 0.0138874
*CONN
*P io_in[5] I
*I *35058:A I *D sky130_fd_sc_hd__clkbuf_1
*I *692:DIODE I *D sky130_fd_sc_hd__diode_2
*CAP
1 io_in[5] 0.000374455
2 *35058:A 0
3 *692:DIODE 0.000160079
4 *83:9 0.00645725
5 *83:7 0.00667162
6 *692:DIODE *35328:A 0
7 *83:7 io_out[29] 2.25951e-05
8 *83:7 la_data_out[84] 0.000124023
9 *83:9 la_data_out[104] 0
10 *83:9 la_data_out[50] 0
11 *83:9 la_data_out[58] 0
12 *83:9 la_data_out[84] 0
13 *83:9 la_data_out[95] 0
14 *83:9 user_irq[2] 0
15 *83:9 wbs_dat_o[23] 0
16 *83:9 wbs_dat_o[4] 0
17 *83:9 wbs_dat_o[6] 0
18 *83:9 wbs_dat_o[7] 0
19 *83:9 wbs_dat_o[8] 0
20 *83:9 *35319:A 0
21 *83:9 *35332:A 0
22 intr_vec_o[18] *83:9 0
23 intr_vec_o[20] *83:9 0
24 *690:DIODE *83:9 7.7409e-05
*RES
1 io_in[5] *83:7 4.8388 
2 *83:7 *83:9 115.027 
3 *83:9 *692:DIODE 16.2821 
4 *83:9 *35058:A 13.8 
*END

*D_NET *88 0.000951015
*CONN
*P io_oeb[0] O
*I *35206:HI O *D sky130_fd_sc_hd__conb_1
*CAP
1 io_oeb[0] 0.000475508
2 *35206:HI 0.000475508
3 io_oeb[0] io_oeb[13] 0
4 io_oeb[0] wbs_dat_o[0] 0
*RES
1 *35206:HI io_oeb[0] 23.05 
*END

*D_NET *89 0.000516396
*CONN
*P io_oeb[10] O
*I *35211:HI O *D sky130_fd_sc_hd__conb_1
*CAP
1 io_oeb[10] 0.000172009
2 *35211:HI 0.000172009
3 io_oeb[10] la_data_out[103] 8.00463e-05
4 intr_vec_o[30] io_oeb[10] 9.23325e-05
*RES
1 *35211:HI io_oeb[10] 18.1949 
*END

*D_NET *90 0.000930923
*CONN
*P io_oeb[11] O
*I *35212:HI O *D sky130_fd_sc_hd__conb_1
*CAP
1 io_oeb[11] 0.000465461
2 *35212:HI 0.000465461
3 io_oeb[11] io_out[21] 0
4 io_oeb[11] la_data_out[122] 0
*RES
1 *35212:HI io_oeb[11] 23.05 
*END

*D_NET *91 0.000556983
*CONN
*P io_oeb[12] O
*I *35213:HI O *D sky130_fd_sc_hd__conb_1
*CAP
1 io_oeb[12] 0.000189186
2 *35213:HI 0.000189186
3 io_oeb[12] io_oeb[16] 8.31622e-05
4 io_oeb[12] io_oeb[9] 9.54485e-05
*RES
1 *35213:HI io_oeb[12] 18.8021 
*END

*D_NET *92 0.000951015
*CONN
*P io_oeb[13] O
*I *35214:HI O *D sky130_fd_sc_hd__conb_1
*CAP
1 io_oeb[13] 0.000475508
2 *35214:HI 0.000475508
3 io_oeb[13] la_data_out[69] 0
4 io_oeb[0] io_oeb[13] 0
*RES
1 *35214:HI io_oeb[13] 23.05 
*END

*D_NET *93 0.000559875
*CONN
*P io_oeb[14] O
*I *35215:HI O *D sky130_fd_sc_hd__conb_1
*CAP
1 io_oeb[14] 0.000191574
2 *35215:HI 0.000191574
3 io_oeb[14] la_data_out[42] 9.28756e-05
4 io_oeb[14] la_data_out[62] 8.38509e-05
*RES
1 *35215:HI io_oeb[14] 18.8021 
*END

*D_NET *94 0.000492029
*CONN
*P io_oeb[15] O
*I *35216:HI O *D sky130_fd_sc_hd__conb_1
*CAP
1 io_oeb[15] 0.000157651
2 *35216:HI 0.000157651
3 io_oeb[15] io_out[27] 8.38509e-05
4 io_oeb[15] *688:12 0
5 intr_vec_o[1] io_oeb[15] 9.28756e-05
*RES
1 *35216:HI io_oeb[15] 18.1949 
*END

*D_NET *95 0.000501599
*CONN
*P io_oeb[16] O
*I *35217:HI O *D sky130_fd_sc_hd__conb_1
*CAP
1 io_oeb[16] 0.000162781
2 *35217:HI 0.000162781
3 intr_vec_o[27] io_oeb[16] 9.28756e-05
4 io_oeb[12] io_oeb[16] 8.31622e-05
*RES
1 *35217:HI io_oeb[16] 18.1949 
*END

*D_NET *96 0.000815035
*CONN
*P io_oeb[17] O
*I *35218:HI O *D sky130_fd_sc_hd__conb_1
*CAP
1 io_oeb[17] 0.000397872
2 *35218:HI 0.000397872
3 io_oeb[17] io_out[24] 0
4 io_oeb[17] *35321:A 1.92905e-05
*RES
1 *35218:HI io_oeb[17] 21.2286 
*END

*D_NET *97 0.000702911
*CONN
*P io_oeb[18] O
*I *35219:HI O *D sky130_fd_sc_hd__conb_1
*CAP
1 io_oeb[18] 0.000210186
2 *35219:HI 0.000210186
3 io_oeb[18] io_oeb[19] 0.000150175
4 io_oeb[18] wbs_dat_o[30] 9.54083e-05
5 io_oeb[18] *676:10 3.69573e-05
*RES
1 *35219:HI io_oeb[18] 19.0026 
*END

*D_NET *98 0.000714031
*CONN
*P io_oeb[19] O
*I *35220:HI O *D sky130_fd_sc_hd__conb_1
*CAP
1 io_oeb[19] 0.00021717
2 *35220:HI 0.00021717
3 io_oeb[19] la_data_out[24] 9.7988e-05
4 io_oeb[19] *676:10 3.15282e-05
5 io_oeb[18] io_oeb[19] 0.000150175
*RES
1 *35220:HI io_oeb[19] 19.0026 
*END

*D_NET *99 0.00062397
*CONN
*P io_oeb[1] O
*I *35250:LO O *D sky130_fd_sc_hd__conb_1
*CAP
1 io_oeb[1] 0.000217823
2 *35250:LO 0.000217823
3 io_oeb[1] io_out[18] 9.28756e-05
4 intr_vec_o[5] io_oeb[1] 9.54485e-05
*RES
1 *35250:LO io_oeb[1] 19.4092 
*END

*D_NET *100 0.000930923
*CONN
*P io_oeb[20] O
*I *35222:HI O *D sky130_fd_sc_hd__conb_1
*CAP
1 io_oeb[20] 0.000465461
2 *35222:HI 0.000465461
3 io_oeb[20] io_oeb[33] 0
4 io_oeb[20] la_data_out[100] 0
*RES
1 *35222:HI io_oeb[20] 23.05 
*END

*D_NET *101 0.00049574
*CONN
*P io_oeb[21] O
*I *35223:HI O *D sky130_fd_sc_hd__conb_1
*CAP
1 io_oeb[21] 0.000159507
2 *35223:HI 0.000159507
3 io_oeb[21] io_oeb[26] 9.28756e-05
4 io_oeb[21] la_data_out[13] 8.38509e-05
*RES
1 *35223:HI io_oeb[21] 18.1949 
*END

*D_NET *102 0.000631418
*CONN
*P io_oeb[22] O
*I *35224:HI O *D sky130_fd_sc_hd__conb_1
*CAP
1 io_oeb[22] 0.000222155
2 *35224:HI 0.000222155
3 io_oeb[22] la_data_out[20] 8.83571e-05
4 io_oeb[22] user_irq[2] 2.25951e-05
5 *12:15 io_oeb[22] 7.6156e-05
*RES
1 *35224:HI io_oeb[22] 18.3955 
*END

*D_NET *103 0.000486718
*CONN
*P io_oeb[23] O
*I *35225:HI O *D sky130_fd_sc_hd__conb_1
*CAP
1 io_oeb[23] 0.000149455
2 *35225:HI 0.000149455
3 io_oeb[23] io_oeb[30] 8.38509e-05
4 io_oeb[23] la_data_out[106] 9.54485e-05
5 io_oeb[23] *35337:A 8.50795e-06
*RES
1 *35225:HI io_oeb[23] 18.1949 
*END

*D_NET *104 0.000951015
*CONN
*P io_oeb[24] O
*I *35226:HI O *D sky130_fd_sc_hd__conb_1
*CAP
1 io_oeb[24] 0.000475508
2 *35226:HI 0.000475508
3 io_oeb[24] la_data_out[73] 0
4 io_oeb[24] wbs_dat_o[0] 0
*RES
1 *35226:HI io_oeb[24] 23.05 
*END

*D_NET *105 0.000581425
*CONN
*P io_oeb[25] O
*I *35227:HI O *D sky130_fd_sc_hd__conb_1
*CAP
1 io_oeb[25] 0.000226723
2 *35227:HI 0.000226723
3 io_oeb[25] rst_no 9.7988e-05
4 io_oeb[25] *35313:A 2.99915e-05
*RES
1 *35227:HI io_oeb[25] 18.3955 
*END

*D_NET *106 0.000684287
*CONN
*P io_oeb[26] O
*I *35228:HI O *D sky130_fd_sc_hd__conb_1
*CAP
1 io_oeb[26] 0.000247981
2 *35228:HI 0.000247981
3 io_oeb[26] io_oeb[35] 9.54485e-05
4 io_oeb[21] io_oeb[26] 9.28756e-05
*RES
1 *35228:HI io_oeb[26] 20.0163 
*END

*D_NET *107 0.000930923
*CONN
*P io_oeb[27] O
*I *35229:HI O *D sky130_fd_sc_hd__conb_1
*CAP
1 io_oeb[27] 0.000465461
2 *35229:HI 0.000465461
3 io_oeb[27] la_data_out[111] 0
4 io_oeb[27] la_data_out[23] 0
*RES
1 *35229:HI io_oeb[27] 23.05 
*END

*D_NET *108 0.000501599
*CONN
*P io_oeb[28] O
*I *35230:HI O *D sky130_fd_sc_hd__conb_1
*CAP
1 io_oeb[28] 0.000162781
2 *35230:HI 0.000162781
3 io_oeb[28] la_data_out[125] 9.28756e-05
4 intr_vec_o[26] io_oeb[28] 8.31622e-05
*RES
1 *35230:HI io_oeb[28] 18.1949 
*END

*D_NET *109 0.000930923
*CONN
*P io_oeb[29] O
*I *35231:HI O *D sky130_fd_sc_hd__conb_1
*CAP
1 io_oeb[29] 0.000465461
2 *35231:HI 0.000465461
3 io_oeb[29] la_data_out[29] 0
4 io_oeb[29] wbs_dat_o[1] 0
*RES
1 *35231:HI io_oeb[29] 23.05 
*END

*D_NET *110 0.000513263
*CONN
*P io_oeb[2] O
*I *35251:LO O *D sky130_fd_sc_hd__conb_1
*CAP
1 io_oeb[2] 0.000205798
2 *35251:LO 0.000205798
3 io_oeb[2] la_data_out[102] 2.25951e-05
4 io_oeb[2] la_data_out[32] 6.88799e-05
5 io_oeb[2] *676:10 1.01912e-05
*RES
1 *35251:LO io_oeb[2] 18.1949 
*END

*D_NET *111 0.000504156
*CONN
*P io_oeb[30] O
*I *35233:HI O *D sky130_fd_sc_hd__conb_1
*CAP
1 io_oeb[30] 0.000168797
2 *35233:HI 0.000168797
3 io_oeb[30] la_data_out[45] 7.45781e-05
4 io_oeb[30] *35337:A 8.13261e-06
5 io_oeb[23] io_oeb[30] 8.38509e-05
*RES
1 *35233:HI io_oeb[30] 18.1949 
*END

*D_NET *112 0.000930923
*CONN
*P io_oeb[31] O
*I *35234:HI O *D sky130_fd_sc_hd__conb_1
*CAP
1 io_oeb[31] 0.000465461
2 *35234:HI 0.000465461
3 io_oeb[31] la_data_out[78] 0
4 io_oeb[31] la_data_out[87] 0
*RES
1 *35234:HI io_oeb[31] 23.05 
*END

*D_NET *113 0.000548773
*CONN
*P io_oeb[32] O
*I *35235:HI O *D sky130_fd_sc_hd__conb_1
*CAP
1 io_oeb[32] 0.000184737
2 *35235:HI 0.000184737
3 intr_vec_o[31] io_oeb[32] 8.38509e-05
4 *35039:A io_oeb[32] 9.54485e-05
*RES
1 *35235:HI io_oeb[32] 18.8021 
*END

*D_NET *114 0.000930923
*CONN
*P io_oeb[33] O
*I *35236:HI O *D sky130_fd_sc_hd__conb_1
*CAP
1 io_oeb[33] 0.000465461
2 *35236:HI 0.000465461
3 io_oeb[33] la_data_out[40] 0
4 io_oeb[20] io_oeb[33] 0
*RES
1 *35236:HI io_oeb[33] 23.05 
*END

*D_NET *115 0.000930923
*CONN
*P io_oeb[34] O
*I *35237:HI O *D sky130_fd_sc_hd__conb_1
*CAP
1 io_oeb[34] 0.000465461
2 *35237:HI 0.000465461
3 io_oeb[34] la_data_out[117] 0
4 io_oeb[34] la_data_out[33] 0
*RES
1 *35237:HI io_oeb[34] 23.05 
*END

*D_NET *116 0.000555805
*CONN
*P io_oeb[35] O
*I *35238:HI O *D sky130_fd_sc_hd__conb_1
*CAP
1 io_oeb[35] 0.000182454
2 *35238:HI 0.000182454
3 io_oeb[35] la_data_out[88] 9.54485e-05
4 io_oeb[26] io_oeb[35] 9.54485e-05
*RES
1 *35238:HI io_oeb[35] 18.8021 
*END

*D_NET *117 0.000810554
*CONN
*P io_oeb[36] O
*I *35239:HI O *D sky130_fd_sc_hd__conb_1
*CAP
1 io_oeb[36] 0.000405277
2 *35239:HI 0.000405277
3 io_oeb[36] io_out[3] 0
4 intr_vec_o[17] io_oeb[36] 0
*RES
1 *35239:HI io_oeb[36] 21.2286 
*END

*D_NET *118 0.000636275
*CONN
*P io_oeb[37] O
*I *35240:HI O *D sky130_fd_sc_hd__conb_1
*CAP
1 io_oeb[37] 0.000257201
2 *35240:HI 0.000257201
3 io_oeb[37] io_out[0] 3.19385e-05
4 io_oeb[37] wbs_dat_o[13] 8.41435e-05
5 io_oeb[37] wbs_dat_o[25] 0
6 io_oeb[37] *35332:A 5.7903e-06
7 *690:DIODE io_oeb[37] 0
*RES
1 *35240:HI io_oeb[37] 18.8021 
*END

*D_NET *119 0.00111254
*CONN
*P io_oeb[3] O
*I *35252:LO O *D sky130_fd_sc_hd__conb_1
*CAP
1 io_oeb[3] 0.000556269
2 *35252:LO 0.000556269
3 io_oeb[3] la_data_out[26] 0
4 io_oeb[3] wbs_dat_o[14] 0
*RES
1 *35252:LO io_oeb[3] 24.6036 
*END

*D_NET *120 0.000990337
*CONN
*P io_oeb[4] O
*I *35253:LO O *D sky130_fd_sc_hd__conb_1
*CAP
1 io_oeb[4] 0.000495168
2 *35253:LO 0.000495168
3 io_oeb[4] io_out[30] 0
4 io_oeb[4] la_data_out[23] 0
*RES
1 *35253:LO io_oeb[4] 23.6571 
*END

*D_NET *121 0.00062397
*CONN
*P io_oeb[5] O
*I *35207:HI O *D sky130_fd_sc_hd__conb_1
*CAP
1 io_oeb[5] 0.000217823
2 *35207:HI 0.000217823
3 io_oeb[5] la_data_out[75] 9.54485e-05
4 intr_vec_o[31] io_oeb[5] 9.28756e-05
*RES
1 *35207:HI io_oeb[5] 19.4092 
*END

*D_NET *122 0.00084331
*CONN
*P io_oeb[6] O
*I *35254:LO O *D sky130_fd_sc_hd__conb_1
*CAP
1 io_oeb[6] 0.000421655
2 *35254:LO 0.000421655
3 *35050:A io_oeb[6] 0
*RES
1 *35254:LO io_oeb[6] 21.8357 
*END

*D_NET *123 0.000930923
*CONN
*P io_oeb[7] O
*I *35208:HI O *D sky130_fd_sc_hd__conb_1
*CAP
1 io_oeb[7] 0.000465461
2 *35208:HI 0.000465461
3 io_oeb[7] la_data_out[96] 0
4 *35046:A io_oeb[7] 0
*RES
1 *35208:HI io_oeb[7] 23.05 
*END

*D_NET *124 0.000951015
*CONN
*P io_oeb[8] O
*I *35209:HI O *D sky130_fd_sc_hd__conb_1
*CAP
1 io_oeb[8] 0.000475508
2 *35209:HI 0.000475508
3 io_oeb[8] la_data_out[59] 0
4 io_oeb[8] la_data_out[74] 0
*RES
1 *35209:HI io_oeb[8] 23.05 
*END

*D_NET *125 0.000555805
*CONN
*P io_oeb[9] O
*I *35210:HI O *D sky130_fd_sc_hd__conb_1
*CAP
1 io_oeb[9] 0.000182454
2 *35210:HI 0.000182454
3 io_oeb[9] la_data_out[125] 9.54485e-05
4 io_oeb[12] io_oeb[9] 9.54485e-05
*RES
1 *35210:HI io_oeb[9] 18.8021 
*END

*D_NET *126 0.000660857
*CONN
*P io_out[0] O
*I *35255:LO O *D sky130_fd_sc_hd__conb_1
*CAP
1 io_out[0] 0.000303162
2 *35255:LO 0.000303162
3 io_out[0] wbs_dat_o[25] 2.25951e-05
4 io_out[0] *35332:A 0
5 io_oeb[37] io_out[0] 3.19385e-05
6 *7:17 io_out[0] 0
7 *12:17 io_out[0] 0
*RES
1 *35255:LO io_out[0] 21.4981 
*END

*D_NET *127 0.000489339
*CONN
*P io_out[10] O
*I *35260:LO O *D sky130_fd_sc_hd__conb_1
*CAP
1 io_out[10] 0.00015502
2 *35260:LO 0.00015502
3 io_out[10] io_out[17] 8.38509e-05
4 io_out[10] la_data_out[83] 9.54485e-05
*RES
1 *35260:LO io_out[10] 18.1949 
*END

*D_NET *128 0.000501599
*CONN
*P io_out[11] O
*I *35261:LO O *D sky130_fd_sc_hd__conb_1
*CAP
1 io_out[11] 0.000162781
2 *35261:LO 0.000162781
3 io_out[11] io_out[15] 8.31622e-05
4 intr_vec_o[16] io_out[11] 9.28756e-05
*RES
1 *35261:LO io_out[11] 18.1949 
*END

*D_NET *129 0.00073896
*CONN
*P io_out[12] O
*I *35262:LO O *D sky130_fd_sc_hd__conb_1
*CAP
1 io_out[12] 0.000340895
2 *35262:LO 0.000340895
3 io_out[12] la_data_out[52] 2.99915e-05
4 io_out[12] la_data_out[76] 2.71788e-05
5 *7:13 io_out[12] 0
*RES
1 *35262:LO io_out[12] 22.1053 
*END

*D_NET *130 0.00071467
*CONN
*P io_out[13] O
*I *35263:LO O *D sky130_fd_sc_hd__conb_1
*CAP
1 io_out[13] 0.000297044
2 *35263:LO 0.000297044
3 io_out[13] la_data_out[15] 2.25951e-05
4 io_out[13] la_data_out[48] 9.7988e-05
5 io_out[13] *35038:A 0
*RES
1 *35263:LO io_out[13] 19.6097 
*END

*D_NET *131 0.000992424
*CONN
*P io_out[14] O
*I *35264:LO O *D sky130_fd_sc_hd__conb_1
*CAP
1 io_out[14] 0.000496212
2 *35264:LO 0.000496212
3 io_out[14] la_data_out[47] 0
4 intr_vec_o[28] io_out[14] 0
*RES
1 *35264:LO io_out[14] 23.6571 
*END

*D_NET *132 0.000565734
*CONN
*P io_out[15] O
*I *35265:LO O *D sky130_fd_sc_hd__conb_1
*CAP
1 io_out[15] 0.000194848
2 *35265:LO 0.000194848
3 intr_vec_o[23] io_out[15] 9.28756e-05
4 io_out[11] io_out[15] 8.31622e-05
*RES
1 *35265:LO io_out[15] 18.8021 
*END

*D_NET *133 0.000990337
*CONN
*P io_out[16] O
*I *35266:LO O *D sky130_fd_sc_hd__conb_1
*CAP
1 io_out[16] 0.000495168
2 *35266:LO 0.000495168
3 io_out[16] la_data_out[11] 0
4 io_out[16] *666:12 0
5 intr_vec_o[3] io_out[16] 0
*RES
1 *35266:LO io_out[16] 23.6571 
*END

*D_NET *134 0.00049574
*CONN
*P io_out[17] O
*I *35267:LO O *D sky130_fd_sc_hd__conb_1
*CAP
1 io_out[17] 0.000159507
2 *35267:LO 0.000159507
3 io_out[17] io_out[8] 9.28756e-05
4 io_out[10] io_out[17] 8.38509e-05
*RES
1 *35267:LO io_out[17] 18.1949 
*END

*D_NET *135 0.00050395
*CONN
*P io_out[18] O
*I *35268:LO O *D sky130_fd_sc_hd__conb_1
*CAP
1 io_out[18] 0.000163956
2 *35268:LO 0.000163956
3 io_out[18] la_data_out[80] 8.31622e-05
4 io_oeb[1] io_out[18] 9.28756e-05
*RES
1 *35268:LO io_out[18] 18.1949 
*END

*D_NET *136 0.000498055
*CONN
*P io_out[19] O
*I *35269:LO O *D sky130_fd_sc_hd__conb_1
*CAP
1 io_out[19] 0.000155426
2 *35269:LO 0.000155426
3 io_out[19] la_data_out[31] 8.41435e-05
4 io_out[19] wbs_dat_o[15] 9.28688e-05
5 io_out[19] *676:10 1.01912e-05
*RES
1 *35269:LO io_out[19] 18.1949 
*END

*D_NET *137 0.00144029
*CONN
*P io_out[1] O
*I *35321:X O *D sky130_fd_sc_hd__buf_2
*CAP
1 io_out[1] 0.000633413
2 *35321:X 0.000633413
3 io_out[1] io_out[24] 0
4 io_out[1] *35321:A 0.000173467
5 *35052:A io_out[1] 0
*RES
1 *35321:X io_out[1] 24.5143 
*END

*D_NET *138 0.000874411
*CONN
*P io_out[20] O
*I *35270:LO O *D sky130_fd_sc_hd__conb_1
*CAP
1 io_out[20] 0.00040959
2 *35270:LO 0.00040959
3 io_out[20] la_data_out[0] 0
4 io_out[20] *35321:A 5.52302e-05
5 intr_vec_o[29] io_out[20] 0
*RES
1 *35270:LO io_out[20] 21.8357 
*END

*D_NET *139 0.000990337
*CONN
*P io_out[21] O
*I *35271:LO O *D sky130_fd_sc_hd__conb_1
*CAP
1 io_out[21] 0.000495168
2 *35271:LO 0.000495168
3 io_out[21] la_data_out[82] 0
4 io_oeb[11] io_out[21] 0
*RES
1 *35271:LO io_out[21] 23.6571 
*END

*D_NET *140 0.000621206
*CONN
*P io_out[22] O
*I *35272:LO O *D sky130_fd_sc_hd__conb_1
*CAP
1 io_out[22] 0.000217337
2 *35272:LO 0.000217337
3 io_out[22] io_out[29] 0.000163937
4 io_out[22] rst_no 2.25951e-05
*RES
1 *35272:LO io_out[22] 18.3955 
*END

*D_NET *141 0.00071467
*CONN
*P io_out[23] O
*I *35273:LO O *D sky130_fd_sc_hd__conb_1
*CAP
1 io_out[23] 0.000297044
2 *35273:LO 0.000297044
3 io_out[23] la_data_out[28] 9.7988e-05
4 io_out[23] *35056:A 2.25951e-05
*RES
1 *35273:LO io_out[23] 19.6097 
*END

*D_NET *142 0.000878979
*CONN
*P io_out[24] O
*I *35274:LO O *D sky130_fd_sc_hd__conb_1
*CAP
1 io_out[24] 0.000411874
2 *35274:LO 0.000411874
3 io_out[24] *35321:A 5.52302e-05
4 io_oeb[17] io_out[24] 0
5 io_out[1] io_out[24] 0
*RES
1 *35274:LO io_out[24] 21.8357 
*END

*D_NET *143 0.000606416
*CONN
*P io_out[25] O
*I *35275:LO O *D sky130_fd_sc_hd__conb_1
*CAP
1 io_out[25] 0.000231741
2 *35275:LO 0.000231741
3 io_out[25] spi_miso_o 0.000114549
4 io_out[25] wbs_dat_o[4] 2.25951e-05
5 io_out[25] *35328:A 5.7903e-06
*RES
1 *35275:LO io_out[25] 18.3955 
*END

*D_NET *144 0.0011833
*CONN
*P io_out[26] O
*I *35276:LO O *D sky130_fd_sc_hd__conb_1
*CAP
1 io_out[26] 0.000515985
2 *35276:LO 0.000515985
3 io_out[26] *35320:A 0.000151333
4 intr_vec_o[11] io_out[26] 0
5 intr_vec_o[9] io_out[26] 0
6 *35050:A io_out[26] 0
*RES
1 *35276:LO io_out[26] 23.6571 
*END

*D_NET *145 0.000497153
*CONN
*P io_out[27] O
*I *35277:LO O *D sky130_fd_sc_hd__conb_1
*CAP
1 io_out[27] 0.000168415
2 *35277:LO 0.000168415
3 io_out[27] *688:12 0
4 intr_vec_o[0] io_out[27] 7.64712e-05
5 io_oeb[15] io_out[27] 8.38509e-05
*RES
1 *35277:LO io_out[27] 18.1949 
*END

*D_NET *146 0.00084331
*CONN
*P io_out[28] O
*I *35278:LO O *D sky130_fd_sc_hd__conb_1
*CAP
1 io_out[28] 0.000421655
2 *35278:LO 0.000421655
3 intr_vec_o[21] io_out[28] 0
*RES
1 *35278:LO io_out[28] 21.8357 
*END

*D_NET *147 0.000594491
*CONN
*P io_out[29] O
*I *35279:LO O *D sky130_fd_sc_hd__conb_1
*CAP
1 io_out[29] 0.00020398
2 *35279:LO 0.00020398
3 io_out[22] io_out[29] 0.000163937
4 *83:7 io_out[29] 2.25951e-05
*RES
1 *35279:LO io_out[29] 18.3955 
*END

*D_NET *148 0.00114038
*CONN
*P io_out[2] O
*I *35322:X O *D sky130_fd_sc_hd__buf_2
*CAP
1 io_out[2] 0.000553186
2 *35322:X 0.000553186
3 io_out[2] la_data_out[117] 0
4 io_out[2] uart_rx_o 0
5 io_out[2] *35322:A 3.40128e-05
*RES
1 *35322:X io_out[2] 25.0857 
*END

*D_NET *149 0.000990337
*CONN
*P io_out[30] O
*I *35280:LO O *D sky130_fd_sc_hd__conb_1
*CAP
1 io_out[30] 0.000495168
2 *35280:LO 0.000495168
3 io_out[30] la_data_out[11] 0
4 io_oeb[4] io_out[30] 0
*RES
1 *35280:LO io_out[30] 23.6571 
*END

*D_NET *150 0.000676389
*CONN
*P io_out[31] O
*I *35281:LO O *D sky130_fd_sc_hd__conb_1
*CAP
1 io_out[31] 0.0002633
2 *35281:LO 0.0002633
3 io_out[31] la_data_out[112] 2.25951e-05
4 io_out[31] la_data_out[95] 0.000127193
*RES
1 *35281:LO io_out[31] 18.3955 
*END

*D_NET *151 0.000665685
*CONN
*P io_out[32] O
*I *35282:LO O *D sky130_fd_sc_hd__conb_1
*CAP
1 io_out[32] 0.000208095
2 *35282:LO 0.000208095
3 io_out[32] la_data_out[32] 0.000114549
4 io_out[32] la_data_out[39] 9.7988e-05
5 io_out[32] *676:10 3.69573e-05
*RES
1 *35282:LO io_out[32] 19.0026 
*END

*D_NET *152 0.000990337
*CONN
*P io_out[33] O
*I *35283:LO O *D sky130_fd_sc_hd__conb_1
*CAP
1 io_out[33] 0.000495168
2 *35283:LO 0.000495168
3 io_out[33] la_data_out[2] 0
4 io_out[33] la_data_out[51] 0
*RES
1 *35283:LO io_out[33] 23.6571 
*END

*D_NET *153 0.00107525
*CONN
*P io_out[34] O
*I *35284:LO O *D sky130_fd_sc_hd__conb_1
*CAP
1 io_out[34] 0.000537625
2 *35284:LO 0.000537625
3 io_out[34] wbs_dat_o[20] 0
4 io_out[34] wbs_dat_o[26] 0
*RES
1 *35284:LO io_out[34] 24.4786 
*END

*D_NET *154 0.000571567
*CONN
*P io_out[35] O
*I *35285:LO O *D sky130_fd_sc_hd__conb_1
*CAP
1 io_out[35] 0.000205794
2 *35285:LO 0.000205794
3 io_out[35] la_data_out[63] 2.25951e-05
4 io_out[35] wbs_dat_o[18] 0.000127193
5 io_out[35] *676:10 1.01912e-05
*RES
1 *35285:LO io_out[35] 18.3955 
*END

*D_NET *155 0.000501599
*CONN
*P io_out[36] O
*I *35286:LO O *D sky130_fd_sc_hd__conb_1
*CAP
1 io_out[36] 0.000162781
2 *35286:LO 0.000162781
3 io_out[36] la_data_out[6] 9.28756e-05
4 io_out[36] la_data_out[88] 8.31622e-05
*RES
1 *35286:LO io_out[36] 18.1949 
*END

*D_NET *156 0.000484361
*CONN
*P io_out[37] O
*I *35287:LO O *D sky130_fd_sc_hd__conb_1
*CAP
1 io_out[37] 0.000183716
2 *35287:LO 0.000183716
3 io_out[37] la_data_out[60] 8.41435e-05
4 io_out[37] wbs_dat_o[30] 2.25951e-05
5 io_out[37] *676:10 1.01912e-05
*RES
1 *35287:LO io_out[37] 18.1949 
*END

*D_NET *157 0.000955218
*CONN
*P io_out[3] O
*I *35323:X O *D sky130_fd_sc_hd__buf_2
*CAP
1 io_out[3] 0.000467964
2 *35323:X 0.000467964
3 io_out[3] *35323:A 1.92905e-05
4 intr_vec_o[11] io_out[3] 0
5 io_oeb[36] io_out[3] 0
*RES
1 *35323:X io_out[3] 22.05 
*END

*D_NET *158 0.000600843
*CONN
*P io_out[4] O
*I *35325:X O *D sky130_fd_sc_hd__buf_2
*CAP
1 io_out[4] 0.000223065
2 *35325:X 0.000223065
3 io_out[4] la_data_out[10] 9.28688e-05
4 io_out[4] *35056:A 6.18446e-05
*RES
1 *35325:X io_out[4] 18.267 
*END

*D_NET *159 0.00084331
*CONN
*P io_out[5] O
*I *35256:LO O *D sky130_fd_sc_hd__conb_1
*CAP
1 io_out[5] 0.000421655
2 *35256:LO 0.000421655
*RES
1 *35256:LO io_out[5] 21.8357 
*END

*D_NET *160 0.0015394
*CONN
*P io_out[6] O
*I *35326:X O *D sky130_fd_sc_hd__buf_2
*CAP
1 io_out[6] 0.000711772
2 *35326:X 0.000711772
3 io_out[6] *35326:A 6.06278e-05
4 intr_vec_o[12] io_out[6] 5.52302e-05
5 intr_vec_o[19] io_out[6] 0
*RES
1 *35326:X io_out[6] 27.675 
*END

*D_NET *161 0.00084331
*CONN
*P io_out[7] O
*I *35257:LO O *D sky130_fd_sc_hd__conb_1
*CAP
1 io_out[7] 0.000421655
2 *35257:LO 0.000421655
*RES
1 *35257:LO io_out[7] 21.8357 
*END

*D_NET *162 0.000693038
*CONN
*P io_out[8] O
*I *35258:LO O *D sky130_fd_sc_hd__conb_1
*CAP
1 io_out[8] 0.000253644
2 *35258:LO 0.000253644
3 io_out[8] la_data_out[119] 9.28756e-05
4 io_out[17] io_out[8] 9.28756e-05
*RES
1 *35258:LO io_out[8] 20.0163 
*END

*D_NET *163 0.00101043
*CONN
*P io_out[9] O
*I *35259:LO O *D sky130_fd_sc_hd__conb_1
*CAP
1 io_out[9] 0.000505214
2 *35259:LO 0.000505214
3 *15:9 io_out[9] 0
4 *50:9 io_out[9] 0
*RES
1 *35259:LO io_out[9] 23.6571 
*END

*D_NET *292 0.000874411
*CONN
*P la_data_out[0] O
*I *35288:LO O *D sky130_fd_sc_hd__conb_1
*CAP
1 la_data_out[0] 0.00040959
2 *35288:LO 0.00040959
3 la_data_out[0] *35321:A 5.52302e-05
4 io_out[20] la_data_out[0] 0
*RES
1 *35288:LO la_data_out[0] 21.8357 
*END

*D_NET *293 0.000990337
*CONN
*P la_data_out[100] O
*I *35136:LO O *D sky130_fd_sc_hd__conb_1
*CAP
1 la_data_out[100] 0.000495168
2 *35136:LO 0.000495168
3 la_data_out[100] la_data_out[113] 0
4 io_oeb[20] la_data_out[100] 0
*RES
1 *35136:LO la_data_out[100] 23.6571 
*END

*D_NET *294 0.00111254
*CONN
*P la_data_out[101] O
*I *35137:LO O *D sky130_fd_sc_hd__conb_1
*CAP
1 la_data_out[101] 0.000556269
2 *35137:LO 0.000556269
3 la_data_out[101] la_data_out[27] 0
4 la_data_out[101] la_data_out[33] 0
*RES
1 *35137:LO la_data_out[101] 24.6036 
*END

*D_NET *295 0.000751792
*CONN
*P la_data_out[102] O
*I *35138:LO O *D sky130_fd_sc_hd__conb_1
*CAP
1 la_data_out[102] 0.000282058
2 *35138:LO 0.000282058
3 la_data_out[102] wbs_dat_o[19] 0.000107534
4 la_data_out[102] *676:10 5.7547e-05
5 io_oeb[2] la_data_out[102] 2.25951e-05
*RES
1 *35138:LO la_data_out[102] 19.6097 
*END

*D_NET *296 0.000522797
*CONN
*P la_data_out[103] O
*I *35139:LO O *D sky130_fd_sc_hd__conb_1
*CAP
1 la_data_out[103] 0.000176496
2 *35139:LO 0.000176496
3 la_data_out[103] la_data_out[120] 8.97596e-05
4 io_oeb[10] la_data_out[103] 8.00463e-05
*RES
1 *35139:LO la_data_out[103] 18.1949 
*END

*D_NET *297 0.000731178
*CONN
*P la_data_out[104] O
*I *35140:LO O *D sky130_fd_sc_hd__conb_1
*CAP
1 la_data_out[104] 0.000293319
2 *35140:LO 0.000293319
3 la_data_out[104] wbs_dat_o[23] 0.000127193
4 *12:15 la_data_out[104] 1.73465e-05
5 *83:9 la_data_out[104] 0
*RES
1 *35140:LO la_data_out[104] 19.6097 
*END

*D_NET *298 0.000618144
*CONN
*P la_data_out[105] O
*I *35141:LO O *D sky130_fd_sc_hd__conb_1
*CAP
1 la_data_out[105] 0.000180626
2 *35141:LO 0.000180626
3 la_data_out[105] la_data_out[91] 0.000163937
4 la_data_out[105] *35332:A 6.27272e-06
5 intr_vec_o[10] la_data_out[105] 8.6683e-05
*RES
1 *35141:LO la_data_out[105] 18.3955 
*END

*D_NET *299 0.00058446
*CONN
*P la_data_out[106] O
*I *35142:LO O *D sky130_fd_sc_hd__conb_1
*CAP
1 la_data_out[106] 0.000180318
2 *35142:LO 0.000180318
3 la_data_out[106] *35337:A 3.29279e-05
4 intr_vec_o[2] la_data_out[106] 9.54485e-05
5 io_oeb[23] la_data_out[106] 9.54485e-05
*RES
1 *35142:LO la_data_out[106] 19.1056 
*END

*D_NET *300 0.000523402
*CONN
*P la_data_out[107] O
*I *35143:LO O *D sky130_fd_sc_hd__conb_1
*CAP
1 la_data_out[107] 0.000158082
2 *35143:LO 0.000158082
3 la_data_out[107] la_data_out[127] 8.41435e-05
4 la_data_out[107] la_data_out[86] 0.000113492
5 la_data_out[107] *676:10 9.60337e-06
*RES
1 *35143:LO la_data_out[107] 18.1949 
*END

*D_NET *301 0.00101043
*CONN
*P la_data_out[108] O
*I *35144:LO O *D sky130_fd_sc_hd__conb_1
*CAP
1 la_data_out[108] 0.000505214
2 *35144:LO 0.000505214
3 la_data_out[108] la_data_out[123] 0
4 la_data_out[108] la_data_out[69] 0
*RES
1 *35144:LO la_data_out[108] 23.6571 
*END

*D_NET *302 0.00101043
*CONN
*P la_data_out[109] O
*I *35145:LO O *D sky130_fd_sc_hd__conb_1
*CAP
1 la_data_out[109] 0.000505214
2 *35145:LO 0.000505214
3 la_data_out[109] la_data_out[16] 0
4 la_data_out[109] la_data_out[59] 0
*RES
1 *35145:LO la_data_out[109] 23.6571 
*END

*D_NET *303 0.000634052
*CONN
*P la_data_out[10] O
*I *35298:LO O *D sky130_fd_sc_hd__conb_1
*CAP
1 la_data_out[10] 0.000206995
2 *35298:LO 0.000206995
3 la_data_out[10] la_data_out[19] 0.000127193
4 io_out[4] la_data_out[10] 9.28688e-05
*RES
1 *35298:LO la_data_out[10] 19.4092 
*END

*D_NET *304 0.000615212
*CONN
*P la_data_out[110] O
*I *35146:LO O *D sky130_fd_sc_hd__conb_1
*CAP
1 la_data_out[110] 0.00021434
2 *35146:LO 0.00021434
3 la_data_out[110] wbs_dat_o[3] 0.000163937
4 la_data_out[110] wbs_dat_o[6] 2.25951e-05
*RES
1 *35146:LO la_data_out[110] 18.3955 
*END

*D_NET *305 0.000991663
*CONN
*P la_data_out[111] O
*I *35147:LO O *D sky130_fd_sc_hd__conb_1
*CAP
1 la_data_out[111] 0.000495832
2 *35147:LO 0.000495832
3 io_oeb[27] la_data_out[111] 0
4 *35042:A la_data_out[111] 0
*RES
1 *35147:LO la_data_out[111] 23.6571 
*END

*D_NET *306 0.00053441
*CONN
*P la_data_out[112] O
*I *35148:LO O *D sky130_fd_sc_hd__conb_1
*CAP
1 la_data_out[112] 0.000195738
2 *35148:LO 0.000195738
3 la_data_out[112] *35319:A 5.7903e-06
4 intr_vec_o[8] la_data_out[112] 0.000114549
5 io_out[31] la_data_out[112] 2.25951e-05
*RES
1 *35148:LO la_data_out[112] 18.1949 
*END

*D_NET *307 0.000990337
*CONN
*P la_data_out[113] O
*I *35149:LO O *D sky130_fd_sc_hd__conb_1
*CAP
1 la_data_out[113] 0.000495168
2 *35149:LO 0.000495168
3 la_data_out[113] la_data_out[25] 0
4 la_data_out[100] la_data_out[113] 0
*RES
1 *35149:LO la_data_out[113] 23.6571 
*END

*D_NET *308 0.000709463
*CONN
*P la_data_out[114] O
*I *35150:LO O *D sky130_fd_sc_hd__conb_1
*CAP
1 la_data_out[114] 0.000296882
2 *35150:LO 0.000296882
3 la_data_out[114] la_data_out[15] 0
4 la_data_out[114] wbs_dat_o[21] 8.68554e-05
5 la_data_out[114] *35038:A 0
6 la_data_out[114] *555:19 1.92404e-05
7 la_data_out[114] *676:10 9.60337e-06
*RES
1 *35150:LO la_data_out[114] 19.0026 
*END

*D_NET *309 0.000684287
*CONN
*P la_data_out[115] O
*I *35151:LO O *D sky130_fd_sc_hd__conb_1
*CAP
1 la_data_out[115] 0.000247981
2 *35151:LO 0.000247981
3 la_data_out[115] la_data_out[43] 9.28756e-05
4 la_data_out[115] la_data_out[81] 9.54485e-05
*RES
1 *35151:LO la_data_out[115] 20.0163 
*END

*D_NET *310 0.000621206
*CONN
*P la_data_out[116] O
*I *35152:LO O *D sky130_fd_sc_hd__conb_1
*CAP
1 la_data_out[116] 0.000217337
2 *35152:LO 0.000217337
3 la_data_out[116] la_data_out[57] 0.000163937
4 la_data_out[116] la_data_out[58] 2.25951e-05
*RES
1 *35152:LO la_data_out[116] 18.3955 
*END

*D_NET *311 0.000990337
*CONN
*P la_data_out[117] O
*I *35153:LO O *D sky130_fd_sc_hd__conb_1
*CAP
1 la_data_out[117] 0.000495168
2 *35153:LO 0.000495168
3 io_oeb[34] la_data_out[117] 0
4 io_out[2] la_data_out[117] 0
*RES
1 *35153:LO la_data_out[117] 23.6571 
*END

*D_NET *312 0.000996999
*CONN
*P la_data_out[118] O
*I *35154:LO O *D sky130_fd_sc_hd__conb_1
*CAP
1 la_data_out[118] 0.000498499
2 *35154:LO 0.000498499
3 la_data_out[118] la_data_out[29] 0
4 intr_vec_o[28] la_data_out[118] 0
*RES
1 *35154:LO la_data_out[118] 23.6571 
*END

*D_NET *313 0.000564557
*CONN
*P la_data_out[119] O
*I *35155:LO O *D sky130_fd_sc_hd__conb_1
*CAP
1 la_data_out[119] 0.000188116
2 *35155:LO 0.000188116
3 la_data_out[119] la_data_out[13] 9.54485e-05
4 io_out[8] la_data_out[119] 9.28756e-05
*RES
1 *35155:LO la_data_out[119] 18.8021 
*END

*D_NET *314 0.000990337
*CONN
*P la_data_out[11] O
*I *35299:LO O *D sky130_fd_sc_hd__conb_1
*CAP
1 la_data_out[11] 0.000495168
2 *35299:LO 0.000495168
3 io_out[16] la_data_out[11] 0
4 io_out[30] la_data_out[11] 0
*RES
1 *35299:LO la_data_out[11] 23.6571 
*END

*D_NET *315 0.000646071
*CONN
*P la_data_out[120] O
*I *35156:LO O *D sky130_fd_sc_hd__conb_1
*CAP
1 la_data_out[120] 0.000231989
2 *35156:LO 0.000231989
3 la_data_out[120] la_data_out[17] 9.23325e-05
4 la_data_out[103] la_data_out[120] 8.97596e-05
5 *10:11 la_data_out[120] 0
*RES
1 *35156:LO la_data_out[120] 19.4092 
*END

*D_NET *316 0.000527914
*CONN
*P la_data_out[121] O
*I *35157:LO O *D sky130_fd_sc_hd__conb_1
*CAP
1 la_data_out[121] 0.000185498
2 *35157:LO 0.000185498
3 la_data_out[121] la_data_out[17] 9.23325e-05
4 la_data_out[121] la_data_out[1] 6.45851e-05
*RES
1 *35157:LO la_data_out[121] 18.1949 
*END

*D_NET *317 0.000990337
*CONN
*P la_data_out[122] O
*I *35158:LO O *D sky130_fd_sc_hd__conb_1
*CAP
1 la_data_out[122] 0.000495168
2 *35158:LO 0.000495168
3 la_data_out[122] la_data_out[44] 0
4 io_oeb[11] la_data_out[122] 0
*RES
1 *35158:LO la_data_out[122] 23.6571 
*END

*D_NET *318 0.00113271
*CONN
*P la_data_out[123] O
*I *35159:LO O *D sky130_fd_sc_hd__conb_1
*CAP
1 la_data_out[123] 0.000566353
2 *35159:LO 0.000566353
3 la_data_out[123] la_data_out[94] 0
4 la_data_out[108] la_data_out[123] 0
*RES
1 *35159:LO la_data_out[123] 24.6036 
*END

*D_NET *319 0.000990337
*CONN
*P la_data_out[124] O
*I *35160:LO O *D sky130_fd_sc_hd__conb_1
*CAP
1 la_data_out[124] 0.000495168
2 *35160:LO 0.000495168
3 la_data_out[124] la_data_out[44] 0
4 la_data_out[124] wbs_dat_o[17] 0
*RES
1 *35160:LO la_data_out[124] 23.6571 
*END

*D_NET *320 0.000624873
*CONN
*P la_data_out[125] O
*I *35161:LO O *D sky130_fd_sc_hd__conb_1
*CAP
1 la_data_out[125] 0.000218275
2 *35161:LO 0.000218275
3 io_oeb[28] la_data_out[125] 9.28756e-05
4 io_oeb[9] la_data_out[125] 9.54485e-05
*RES
1 *35161:LO la_data_out[125] 19.4092 
*END

*D_NET *321 0.000615358
*CONN
*P la_data_out[126] O
*I *35162:LO O *D sky130_fd_sc_hd__conb_1
*CAP
1 la_data_out[126] 0.000190748
2 *35162:LO 0.000190748
3 la_data_out[126] la_data_out[89] 9.54485e-05
4 la_data_out[126] *35317:A 4.29654e-05
5 intr_vec_o[6] la_data_out[126] 9.54485e-05
*RES
1 *35162:LO la_data_out[126] 19.4092 
*END

*D_NET *322 0.00048928
*CONN
*P la_data_out[127] O
*I *35163:LO O *D sky130_fd_sc_hd__conb_1
*CAP
1 la_data_out[127] 0.000149748
2 *35163:LO 0.000149748
3 la_data_out[127] wbs_dat_o[12] 9.54485e-05
4 la_data_out[127] *676:10 1.01912e-05
5 la_data_out[107] la_data_out[127] 8.41435e-05
*RES
1 *35163:LO la_data_out[127] 18.1949 
*END

*D_NET *323 0.000490685
*CONN
*P la_data_out[12] O
*I *35300:LO O *D sky130_fd_sc_hd__conb_1
*CAP
1 la_data_out[12] 0.000191973
2 *35300:LO 0.000191973
3 la_data_out[12] la_data_out[84] 2.25951e-05
4 la_data_out[12] wbs_dat_o[2] 8.41435e-05
*RES
1 *35300:LO la_data_out[12] 18.1949 
*END

*D_NET *324 0.000551123
*CONN
*P la_data_out[13] O
*I *35301:LO O *D sky130_fd_sc_hd__conb_1
*CAP
1 la_data_out[13] 0.000185912
2 *35301:LO 0.000185912
3 io_oeb[21] la_data_out[13] 8.38509e-05
4 la_data_out[119] la_data_out[13] 9.54485e-05
*RES
1 *35301:LO la_data_out[13] 18.8021 
*END

*D_NET *325 0.000633625
*CONN
*P la_data_out[14] O
*I *35302:LO O *D sky130_fd_sc_hd__conb_1
*CAP
1 la_data_out[14] 0.000223937
2 *35302:LO 0.000223937
3 la_data_out[14] la_data_out[30] 9.28756e-05
4 la_data_out[14] la_data_out[83] 9.28756e-05
*RES
1 *35302:LO la_data_out[14] 19.4092 
*END

*D_NET *326 0.000511625
*CONN
*P la_data_out[15] O
*I *35303:LO O *D sky130_fd_sc_hd__conb_1
*CAP
1 la_data_out[15] 0.000235842
2 *35303:LO 0.000235842
3 la_data_out[15] *555:19 1.73465e-05
4 io_out[13] la_data_out[15] 2.25951e-05
5 la_data_out[114] la_data_out[15] 0
*RES
1 *35303:LO la_data_out[15] 18.1949 
*END

*D_NET *327 0.00113825
*CONN
*P la_data_out[16] O
*I *35304:LO O *D sky130_fd_sc_hd__conb_1
*CAP
1 la_data_out[16] 0.000354749
2 *35304:LO 0.000354749
3 la_data_out[109] la_data_out[16] 0
4 *35042:A la_data_out[16] 0.000428748
*RES
1 *35304:LO la_data_out[16] 23.6571 
*END

*D_NET *328 0.000636417
*CONN
*P la_data_out[17] O
*I *35305:LO O *D sky130_fd_sc_hd__conb_1
*CAP
1 la_data_out[17] 0.000225876
2 *35305:LO 0.000225876
3 la_data_out[120] la_data_out[17] 9.23325e-05
4 la_data_out[121] la_data_out[17] 9.23325e-05
5 *10:11 la_data_out[17] 0
*RES
1 *35305:LO la_data_out[17] 19.4092 
*END

*D_NET *329 0.000555558
*CONN
*P la_data_out[18] O
*I *35306:LO O *D sky130_fd_sc_hd__conb_1
*CAP
1 la_data_out[18] 0.000174182
2 *35306:LO 0.000174182
3 la_data_out[18] la_data_out[67] 8.31622e-05
4 la_data_out[18] la_data_out[9] 9.54485e-05
5 la_data_out[18] *35316:A 2.8583e-05
*RES
1 *35306:LO la_data_out[18] 18.8021 
*END

*D_NET *330 0.000655446
*CONN
*P la_data_out[19] O
*I *35307:LO O *D sky130_fd_sc_hd__conb_1
*CAP
1 la_data_out[19] 0.000252829
2 *35307:LO 0.000252829
3 la_data_out[19] *35038:A 2.25951e-05
4 la_data_out[10] la_data_out[19] 0.000127193
*RES
1 *35307:LO la_data_out[19] 19.0026 
*END

*D_NET *331 0.000526356
*CONN
*P la_data_out[1] O
*I *35289:LO O *D sky130_fd_sc_hd__conb_1
*CAP
1 la_data_out[1] 0.00019265
2 *35289:LO 0.00019265
3 la_data_out[1] la_data_out[93] 7.64712e-05
4 la_data_out[121] la_data_out[1] 6.45851e-05
*RES
1 *35289:LO la_data_out[1] 18.1949 
*END

*D_NET *332 0.000565188
*CONN
*P la_data_out[20] O
*I *35308:LO O *D sky130_fd_sc_hd__conb_1
*CAP
1 la_data_out[20] 0.000212183
2 *35308:LO 0.000212183
3 io_oeb[22] la_data_out[20] 8.83571e-05
4 *12:15 la_data_out[20] 5.24642e-05
*RES
1 *35308:LO la_data_out[20] 18.1949 
*END

*D_NET *333 0.000575949
*CONN
*P la_data_out[21] O
*I *35309:LO O *D sky130_fd_sc_hd__conb_1
*CAP
1 la_data_out[21] 0.000203301
2 *35309:LO 0.000203301
3 la_data_out[21] la_data_out[64] 9.28756e-05
4 la_data_out[21] la_data_out[93] 7.64712e-05
*RES
1 *35309:LO la_data_out[21] 18.8021 
*END

*D_NET *334 0.000483277
*CONN
*P la_data_out[22] O
*I *35310:LO O *D sky130_fd_sc_hd__conb_1
*CAP
1 la_data_out[22] 0.000151989
2 *35310:LO 0.000151989
3 la_data_out[22] la_data_out[85] 8.38509e-05
4 la_data_out[22] *683:12 0
5 intr_vec_o[2] la_data_out[22] 9.54485e-05
*RES
1 *35310:LO la_data_out[22] 18.1949 
*END

*D_NET *335 0.000990337
*CONN
*P la_data_out[23] O
*I *35311:LO O *D sky130_fd_sc_hd__conb_1
*CAP
1 la_data_out[23] 0.000495168
2 *35311:LO 0.000495168
3 io_oeb[27] la_data_out[23] 0
4 io_oeb[4] la_data_out[23] 0
*RES
1 *35311:LO la_data_out[23] 23.6571 
*END

*D_NET *336 0.000588769
*CONN
*P la_data_out[24] O
*I *35312:LO O *D sky130_fd_sc_hd__conb_1
*CAP
1 la_data_out[24] 0.000229291
2 *35312:LO 0.000229291
3 la_data_out[24] wbs_dat_o[11] 2.25951e-05
4 la_data_out[24] *676:10 9.60337e-06
5 io_oeb[19] la_data_out[24] 9.7988e-05
*RES
1 *35312:LO la_data_out[24] 18.3955 
*END

*D_NET *337 0.000990337
*CONN
*P la_data_out[25] O
*I *35061:LO O *D sky130_fd_sc_hd__conb_1
*CAP
1 la_data_out[25] 0.000495168
2 *35061:LO 0.000495168
3 la_data_out[25] la_data_out[34] 0
4 la_data_out[113] la_data_out[25] 0
*RES
1 *35061:LO la_data_out[25] 23.6571 
*END

*D_NET *338 0.000990337
*CONN
*P la_data_out[26] O
*I *35062:LO O *D sky130_fd_sc_hd__conb_1
*CAP
1 la_data_out[26] 0.000495168
2 *35062:LO 0.000495168
3 intr_vec_o[24] la_data_out[26] 0
4 io_oeb[3] la_data_out[26] 0
*RES
1 *35062:LO la_data_out[26] 23.6571 
*END

*D_NET *339 0.000994866
*CONN
*P la_data_out[27] O
*I *35063:LO O *D sky130_fd_sc_hd__conb_1
*CAP
1 la_data_out[27] 0.000497433
2 *35063:LO 0.000497433
3 la_data_out[27] la_data_out[51] 0
4 la_data_out[101] la_data_out[27] 0
*RES
1 *35063:LO la_data_out[27] 23.6571 
*END

*D_NET *340 0.000598872
*CONN
*P la_data_out[28] O
*I *35064:LO O *D sky130_fd_sc_hd__conb_1
*CAP
1 la_data_out[28] 0.000193696
2 *35064:LO 0.000193696
3 la_data_out[28] spi_miso_o 0.000113492
4 io_out[23] la_data_out[28] 9.7988e-05
*RES
1 *35064:LO la_data_out[28] 18.3955 
*END

*D_NET *341 0.000990337
*CONN
*P la_data_out[29] O
*I *35065:LO O *D sky130_fd_sc_hd__conb_1
*CAP
1 la_data_out[29] 0.000495168
2 *35065:LO 0.000495168
3 io_oeb[29] la_data_out[29] 0
4 la_data_out[118] la_data_out[29] 0
*RES
1 *35065:LO la_data_out[29] 23.6571 
*END

*D_NET *342 0.000990337
*CONN
*P la_data_out[2] O
*I *35290:LO O *D sky130_fd_sc_hd__conb_1
*CAP
1 la_data_out[2] 0.000495168
2 *35290:LO 0.000495168
3 la_data_out[2] wbs_dat_o[28] 0
4 io_out[33] la_data_out[2] 0
*RES
1 *35290:LO la_data_out[2] 23.6571 
*END

*D_NET *343 0.00049574
*CONN
*P la_data_out[30] O
*I *35066:LO O *D sky130_fd_sc_hd__conb_1
*CAP
1 la_data_out[30] 0.000159507
2 *35066:LO 0.000159507
3 la_data_out[30] la_data_out[41] 8.38509e-05
4 la_data_out[14] la_data_out[30] 9.28756e-05
*RES
1 *35066:LO la_data_out[30] 18.1949 
*END

*D_NET *344 0.000517811
*CONN
*P la_data_out[31] O
*I *35067:LO O *D sky130_fd_sc_hd__conb_1
*CAP
1 la_data_out[31] 0.000154758
2 *35067:LO 0.000154758
3 la_data_out[31] la_data_out[53] 0.000114549
4 la_data_out[31] *676:10 9.60337e-06
5 io_out[19] la_data_out[31] 8.41435e-05
*RES
1 *35067:LO la_data_out[31] 18.1949 
*END

*D_NET *345 0.000534609
*CONN
*P la_data_out[32] O
*I *35068:LO O *D sky130_fd_sc_hd__conb_1
*CAP
1 la_data_out[32] 0.000170788
2 *35068:LO 0.000170788
3 la_data_out[32] *676:10 9.60337e-06
4 io_oeb[2] la_data_out[32] 6.88799e-05
5 io_out[32] la_data_out[32] 0.000114549
*RES
1 *35068:LO la_data_out[32] 18.1949 
*END

*D_NET *346 0.000990337
*CONN
*P la_data_out[33] O
*I *35069:LO O *D sky130_fd_sc_hd__conb_1
*CAP
1 la_data_out[33] 0.000495168
2 *35069:LO 0.000495168
3 io_oeb[34] la_data_out[33] 0
4 la_data_out[101] la_data_out[33] 0
*RES
1 *35069:LO la_data_out[33] 23.6571 
*END

*D_NET *347 0.000990337
*CONN
*P la_data_out[34] O
*I *35070:LO O *D sky130_fd_sc_hd__conb_1
*CAP
1 la_data_out[34] 0.000495168
2 *35070:LO 0.000495168
3 la_data_out[34] la_data_out[4] 0
4 la_data_out[25] la_data_out[34] 0
*RES
1 *35070:LO la_data_out[34] 23.6571 
*END

*D_NET *348 0.000622653
*CONN
*P la_data_out[35] O
*I *35071:LO O *D sky130_fd_sc_hd__conb_1
*CAP
1 la_data_out[35] 0.000219773
2 *35071:LO 0.000219773
3 la_data_out[35] user_irq[2] 2.25951e-05
4 intr_vec_o[14] la_data_out[35] 0.000160513
*RES
1 *35071:LO la_data_out[35] 18.3955 
*END

*D_NET *349 0.000624873
*CONN
*P la_data_out[36] O
*I *35072:LO O *D sky130_fd_sc_hd__conb_1
*CAP
1 la_data_out[36] 0.000218275
2 *35072:LO 0.000218275
3 la_data_out[36] la_data_out[42] 9.54485e-05
4 la_data_out[36] la_data_out[77] 9.28756e-05
*RES
1 *35072:LO la_data_out[36] 19.4092 
*END

*D_NET *350 0.000693038
*CONN
*P la_data_out[37] O
*I *35073:LO O *D sky130_fd_sc_hd__conb_1
*CAP
1 la_data_out[37] 0.000253644
2 *35073:LO 0.000253644
3 la_data_out[37] la_data_out[99] 9.28756e-05
4 *35045:A la_data_out[37] 9.28756e-05
*RES
1 *35073:LO la_data_out[37] 20.0163 
*END

*D_NET *351 0.000494238
*CONN
*P la_data_out[38] O
*I *35074:LO O *D sky130_fd_sc_hd__conb_1
*CAP
1 la_data_out[38] 0.00019337
2 *35074:LO 0.00019337
3 la_data_out[38] la_data_out[46] 8.97596e-05
4 *10:11 la_data_out[38] 1.77382e-05
*RES
1 *35074:LO la_data_out[38] 18.1949 
*END

*D_NET *352 0.000663286
*CONN
*P la_data_out[39] O
*I *35075:LO O *D sky130_fd_sc_hd__conb_1
*CAP
1 la_data_out[39] 0.000255587
2 *35075:LO 0.000255587
3 la_data_out[39] wbs_dat_o[18] 2.25951e-05
4 la_data_out[39] *676:10 3.15282e-05
5 io_out[32] la_data_out[39] 9.7988e-05
*RES
1 *35075:LO la_data_out[39] 19.0026 
*END

*D_NET *353 0.000573308
*CONN
*P la_data_out[3] O
*I *35291:LO O *D sky130_fd_sc_hd__conb_1
*CAP
1 la_data_out[3] 0.000193779
2 *35291:LO 0.000193779
3 la_data_out[3] la_data_out[41] 9.28756e-05
4 la_data_out[3] la_data_out[7] 9.28756e-05
*RES
1 *35291:LO la_data_out[3] 18.8021 
*END

*D_NET *354 0.000990337
*CONN
*P la_data_out[40] O
*I *35076:LO O *D sky130_fd_sc_hd__conb_1
*CAP
1 la_data_out[40] 0.000495168
2 *35076:LO 0.000495168
3 la_data_out[40] la_data_out[8] 0
4 io_oeb[33] la_data_out[40] 0
*RES
1 *35076:LO la_data_out[40] 23.6571 
*END

*D_NET *355 0.000559875
*CONN
*P la_data_out[41] O
*I *35077:LO O *D sky130_fd_sc_hd__conb_1
*CAP
1 la_data_out[41] 0.000191574
2 *35077:LO 0.000191574
3 la_data_out[30] la_data_out[41] 8.38509e-05
4 la_data_out[3] la_data_out[41] 9.28756e-05
*RES
1 *35077:LO la_data_out[41] 18.8021 
*END

*D_NET *356 0.00062397
*CONN
*P la_data_out[42] O
*I *35078:LO O *D sky130_fd_sc_hd__conb_1
*CAP
1 la_data_out[42] 0.000217823
2 *35078:LO 0.000217823
3 io_oeb[14] la_data_out[42] 9.28756e-05
4 la_data_out[36] la_data_out[42] 9.54485e-05
*RES
1 *35078:LO la_data_out[42] 19.4092 
*END

*D_NET *357 0.000573308
*CONN
*P la_data_out[43] O
*I *35079:LO O *D sky130_fd_sc_hd__conb_1
*CAP
1 la_data_out[43] 0.000193779
2 *35079:LO 0.000193779
3 la_data_out[43] la_data_out[72] 9.28756e-05
4 la_data_out[115] la_data_out[43] 9.28756e-05
*RES
1 *35079:LO la_data_out[43] 18.8021 
*END

*D_NET *358 0.000990337
*CONN
*P la_data_out[44] O
*I *35080:LO O *D sky130_fd_sc_hd__conb_1
*CAP
1 la_data_out[44] 0.000495168
2 *35080:LO 0.000495168
3 la_data_out[122] la_data_out[44] 0
4 la_data_out[124] la_data_out[44] 0
*RES
1 *35080:LO la_data_out[44] 23.6571 
*END

*D_NET *359 0.000648182
*CONN
*P la_data_out[45] O
*I *35081:LO O *D sky130_fd_sc_hd__conb_1
*CAP
1 la_data_out[45] 0.000249513
2 *35081:LO 0.000249513
3 intr_vec_o[0] la_data_out[45] 7.45781e-05
4 io_oeb[30] la_data_out[45] 7.45781e-05
*RES
1 *35081:LO la_data_out[45] 19.4092 
*END

*D_NET *360 0.000705485
*CONN
*P la_data_out[46] O
*I *35082:LO O *D sky130_fd_sc_hd__conb_1
*CAP
1 la_data_out[46] 0.000261696
2 *35082:LO 0.000261696
3 intr_vec_o[30] la_data_out[46] 9.23325e-05
4 la_data_out[38] la_data_out[46] 8.97596e-05
5 *10:11 la_data_out[46] 0
*RES
1 *35082:LO la_data_out[46] 20.0163 
*END

*D_NET *361 0.000990337
*CONN
*P la_data_out[47] O
*I *35083:LO O *D sky130_fd_sc_hd__conb_1
*CAP
1 la_data_out[47] 0.000495168
2 *35083:LO 0.000495168
3 la_data_out[47] la_data_out[78] 0
4 io_out[14] la_data_out[47] 0
*RES
1 *35083:LO la_data_out[47] 23.6571 
*END

*D_NET *362 0.000585001
*CONN
*P la_data_out[48] O
*I *35084:LO O *D sky130_fd_sc_hd__conb_1
*CAP
1 la_data_out[48] 0.000200165
2 *35084:LO 0.000200165
3 la_data_out[48] wbs_dat_o[31] 8.6683e-05
4 io_out[13] la_data_out[48] 9.7988e-05
*RES
1 *35084:LO la_data_out[48] 18.3955 
*END

*D_NET *363 0.000615219
*CONN
*P la_data_out[49] O
*I *35085:LO O *D sky130_fd_sc_hd__conb_1
*CAP
1 la_data_out[49] 0.000212161
2 *35085:LO 0.000212161
3 intr_vec_o[1] la_data_out[49] 9.54485e-05
4 intr_vec_o[26] la_data_out[49] 9.54485e-05
*RES
1 *35085:LO la_data_out[49] 19.4092 
*END

*D_NET *364 0.000995973
*CONN
*P la_data_out[4] O
*I *35292:LO O *D sky130_fd_sc_hd__conb_1
*CAP
1 la_data_out[4] 0.000492861
2 *35292:LO 0.000492861
3 la_data_out[4] *35054:A 0
4 la_data_out[4] *35329:A 1.02504e-05
5 la_data_out[34] la_data_out[4] 0
*RES
1 *35292:LO la_data_out[4] 23.6571 
*END

*D_NET *365 0.00066943
*CONN
*P la_data_out[50] O
*I *35086:LO O *D sky130_fd_sc_hd__conb_1
*CAP
1 la_data_out[50] 0.000230265
2 *35086:LO 0.000230265
3 la_data_out[50] la_data_out[58] 9.54083e-05
4 la_data_out[50] wbs_dat_o[2] 0.000113492
5 *83:9 la_data_out[50] 0
*RES
1 *35086:LO la_data_out[50] 19.0026 
*END

*D_NET *366 0.000990337
*CONN
*P la_data_out[51] O
*I *35087:LO O *D sky130_fd_sc_hd__conb_1
*CAP
1 la_data_out[51] 0.000495168
2 *35087:LO 0.000495168
3 io_out[33] la_data_out[51] 0
4 la_data_out[27] la_data_out[51] 0
*RES
1 *35087:LO la_data_out[51] 23.6571 
*END

*D_NET *367 0.000708706
*CONN
*P la_data_out[52] O
*I *35088:LO O *D sky130_fd_sc_hd__conb_1
*CAP
1 la_data_out[52] 0.000324361
2 *35088:LO 0.000324361
3 la_data_out[52] wbs_dat_o[10] 2.99915e-05
4 io_out[12] la_data_out[52] 2.99915e-05
5 *7:13 la_data_out[52] 0
*RES
1 *35088:LO la_data_out[52] 20.891 
*END

*D_NET *368 0.000688062
*CONN
*P la_data_out[53] O
*I *35089:LO O *D sky130_fd_sc_hd__conb_1
*CAP
1 la_data_out[53] 0.000254688
2 *35089:LO 0.000254688
3 la_data_out[53] wbs_dat_o[11] 2.71788e-05
4 la_data_out[53] *676:10 3.69573e-05
5 la_data_out[31] la_data_out[53] 0.000114549
*RES
1 *35089:LO la_data_out[53] 19.0026 
*END

*D_NET *369 0.000994866
*CONN
*P la_data_out[54] O
*I *35090:LO O *D sky130_fd_sc_hd__conb_1
*CAP
1 la_data_out[54] 0.000497433
2 *35090:LO 0.000497433
3 la_data_out[54] la_data_out[56] 0
4 la_data_out[54] wbs_dat_o[1] 0
*RES
1 *35090:LO la_data_out[54] 23.6571 
*END

*D_NET *370 0.000588959
*CONN
*P la_data_out[55] O
*I *35091:LO O *D sky130_fd_sc_hd__conb_1
*CAP
1 la_data_out[55] 0.000216075
2 *35091:LO 0.000216075
3 la_data_out[55] wbs_dat_o[19] 2.25951e-05
4 la_data_out[55] wbs_dat_o[27] 0.000124023
5 la_data_out[55] *676:10 1.01912e-05
*RES
1 *35091:LO la_data_out[55] 18.3955 
*END

*D_NET *371 0.000990337
*CONN
*P la_data_out[56] O
*I *35092:LO O *D sky130_fd_sc_hd__conb_1
*CAP
1 la_data_out[56] 0.000495168
2 *35092:LO 0.000495168
3 la_data_out[56] wbs_dat_o[24] 0
4 la_data_out[54] la_data_out[56] 0
*RES
1 *35092:LO la_data_out[56] 23.6571 
*END

*D_NET *372 0.000603556
*CONN
*P la_data_out[57] O
*I *35093:LO O *D sky130_fd_sc_hd__conb_1
*CAP
1 la_data_out[57] 0.000208512
2 *35093:LO 0.000208512
3 la_data_out[57] wbs_dat_o[23] 2.25951e-05
4 la_data_out[116] la_data_out[57] 0.000163937
*RES
1 *35093:LO la_data_out[57] 18.3955 
*END

*D_NET *373 0.000679331
*CONN
*P la_data_out[58] O
*I *35094:LO O *D sky130_fd_sc_hd__conb_1
*CAP
1 la_data_out[58] 0.000280664
2 *35094:LO 0.000280664
3 la_data_out[116] la_data_out[58] 2.25951e-05
4 la_data_out[50] la_data_out[58] 9.54083e-05
5 *83:9 la_data_out[58] 0
*RES
1 *35094:LO la_data_out[58] 19.0026 
*END

*D_NET *374 0.00101043
*CONN
*P la_data_out[59] O
*I *35095:LO O *D sky130_fd_sc_hd__conb_1
*CAP
1 la_data_out[59] 0.000505214
2 *35095:LO 0.000505214
3 io_oeb[8] la_data_out[59] 0
4 la_data_out[109] la_data_out[59] 0
*RES
1 *35095:LO la_data_out[59] 23.6571 
*END

*D_NET *375 0.000642003
*CONN
*P la_data_out[5] O
*I *35293:LO O *D sky130_fd_sc_hd__conb_1
*CAP
1 la_data_out[5] 0.000227264
2 *35293:LO 0.000227264
3 la_data_out[5] wbs_dat_o[21] 0
4 la_data_out[5] wbs_dat_o[5] 0.000114549
5 la_data_out[5] *555:19 6.33226e-05
6 la_data_out[5] *676:10 9.60337e-06
*RES
1 *35293:LO la_data_out[5] 18.3955 
*END

*D_NET *376 0.000517811
*CONN
*P la_data_out[60] O
*I *35096:LO O *D sky130_fd_sc_hd__conb_1
*CAP
1 la_data_out[60] 0.000154758
2 *35096:LO 0.000154758
3 la_data_out[60] user_irq[0] 0.000114549
4 la_data_out[60] *676:10 9.60337e-06
5 io_out[37] la_data_out[60] 8.41435e-05
*RES
1 *35096:LO la_data_out[60] 18.1949 
*END

*D_NET *377 0.000623688
*CONN
*P la_data_out[61] O
*I *35097:LO O *D sky130_fd_sc_hd__conb_1
*CAP
1 la_data_out[61] 0.000213777
2 *35097:LO 0.000213777
3 la_data_out[61] la_data_out[79] 0.000163937
4 la_data_out[61] la_data_out[98] 2.25951e-05
5 la_data_out[61] *676:10 9.60337e-06
*RES
1 *35097:LO la_data_out[61] 18.3955 
*END

*D_NET *378 0.000486988
*CONN
*P la_data_out[62] O
*I *35098:LO O *D sky130_fd_sc_hd__conb_1
*CAP
1 la_data_out[62] 0.000153845
2 *35098:LO 0.000153845
3 la_data_out[62] la_data_out[7] 9.54485e-05
4 io_oeb[14] la_data_out[62] 8.38509e-05
*RES
1 *35098:LO la_data_out[62] 18.1949 
*END

*D_NET *379 0.000558916
*CONN
*P la_data_out[63] O
*I *35099:LO O *D sky130_fd_sc_hd__conb_1
*CAP
1 la_data_out[63] 0.000204672
2 *35099:LO 0.000204672
3 la_data_out[63] wbs_dat_o[15] 9.54485e-05
4 la_data_out[63] *676:10 3.15282e-05
5 io_out[35] la_data_out[63] 2.25951e-05
*RES
1 *35099:LO la_data_out[63] 18.8021 
*END

*D_NET *380 0.000565734
*CONN
*P la_data_out[64] O
*I *35100:LO O *D sky130_fd_sc_hd__conb_1
*CAP
1 la_data_out[64] 0.000194848
2 *35100:LO 0.000194848
3 la_data_out[64] la_data_out[77] 8.31622e-05
4 la_data_out[21] la_data_out[64] 9.28756e-05
*RES
1 *35100:LO la_data_out[64] 18.8021 
*END

*D_NET *381 0.000683384
*CONN
*P la_data_out[65] O
*I *35101:LO O *D sky130_fd_sc_hd__conb_1
*CAP
1 la_data_out[65] 0.00024753
2 *35101:LO 0.00024753
3 intr_vec_o[15] la_data_out[65] 9.28756e-05
4 intr_vec_o[16] la_data_out[65] 9.54485e-05
*RES
1 *35101:LO la_data_out[65] 20.0163 
*END

*D_NET *382 0.000990337
*CONN
*P la_data_out[66] O
*I *35102:LO O *D sky130_fd_sc_hd__conb_1
*CAP
1 la_data_out[66] 0.000495168
2 *35102:LO 0.000495168
3 la_data_out[66] wbs_dat_o[16] 0
4 la_data_out[66] wbs_dat_o[17] 0
*RES
1 *35102:LO la_data_out[66] 23.6571 
*END

*D_NET *383 0.000498974
*CONN
*P la_data_out[67] O
*I *35103:LO O *D sky130_fd_sc_hd__conb_1
*CAP
1 la_data_out[67] 0.000156892
2 *35103:LO 0.000156892
3 la_data_out[67] *35316:A 9.15186e-06
4 intr_vec_o[5] la_data_out[67] 9.28756e-05
5 la_data_out[18] la_data_out[67] 8.31622e-05
*RES
1 *35103:LO la_data_out[67] 18.1949 
*END

*D_NET *384 0.000493426
*CONN
*P la_data_out[68] O
*I *35104:LO O *D sky130_fd_sc_hd__conb_1
*CAP
1 la_data_out[68] 0.000188248
2 *35104:LO 0.000188248
3 la_data_out[68] user_irq[1] 8.41435e-05
4 la_data_out[68] wbs_ack_o 2.25951e-05
5 la_data_out[68] *676:10 1.01912e-05
*RES
1 *35104:LO la_data_out[68] 18.1949 
*END

*D_NET *385 0.00101043
*CONN
*P la_data_out[69] O
*I *35105:LO O *D sky130_fd_sc_hd__conb_1
*CAP
1 la_data_out[69] 0.000505214
2 *35105:LO 0.000505214
3 io_oeb[13] la_data_out[69] 0
4 la_data_out[108] la_data_out[69] 0
*RES
1 *35105:LO la_data_out[69] 23.6571 
*END

*D_NET *386 0.000686357
*CONN
*P la_data_out[6] O
*I *35294:LO O *D sky130_fd_sc_hd__conb_1
*CAP
1 la_data_out[6] 0.000217496
2 *35294:LO 0.000217496
3 la_data_out[6] la_data_out[9] 9.54485e-05
4 la_data_out[6] *35316:A 6.30405e-05
5 io_out[36] la_data_out[6] 9.28756e-05
*RES
1 *35294:LO la_data_out[6] 20.0163 
*END

*D_NET *387 0.000494765
*CONN
*P la_data_out[70] O
*I *35106:LO O *D sky130_fd_sc_hd__conb_1
*CAP
1 la_data_out[70] 0.000157932
2 *35106:LO 0.000157932
3 la_data_out[70] wbs_dat_o[7] 9.54485e-05
4 la_data_out[70] wbs_dat_o[9] 8.34529e-05
*RES
1 *35106:LO la_data_out[70] 18.1949 
*END

*D_NET *388 0.000654222
*CONN
*P la_data_out[71] O
*I *35107:LO O *D sky130_fd_sc_hd__conb_1
*CAP
1 la_data_out[71] 0.000251055
2 *35107:LO 0.000251055
3 la_data_out[71] la_data_out[86] 9.7988e-05
4 la_data_out[71] wbs_dat_o[27] 2.25951e-05
5 la_data_out[71] *676:10 3.15282e-05
*RES
1 *35107:LO la_data_out[71] 19.0026 
*END

*D_NET *389 0.000559875
*CONN
*P la_data_out[72] O
*I *35108:LO O *D sky130_fd_sc_hd__conb_1
*CAP
1 la_data_out[72] 0.000191574
2 *35108:LO 0.000191574
3 la_data_out[43] la_data_out[72] 9.28756e-05
4 *14:7 la_data_out[72] 8.38509e-05
*RES
1 *35108:LO la_data_out[72] 18.8021 
*END

*D_NET *390 0.00113488
*CONN
*P la_data_out[73] O
*I *35109:LO O *D sky130_fd_sc_hd__conb_1
*CAP
1 la_data_out[73] 0.000567438
2 *35109:LO 0.000567438
3 la_data_out[73] la_data_out[92] 0
4 io_oeb[24] la_data_out[73] 0
*RES
1 *35109:LO la_data_out[73] 24.6036 
*END

*D_NET *391 0.00101043
*CONN
*P la_data_out[74] O
*I *35110:LO O *D sky130_fd_sc_hd__conb_1
*CAP
1 la_data_out[74] 0.000505214
2 *35110:LO 0.000505214
3 la_data_out[74] la_data_out[94] 0
4 io_oeb[8] la_data_out[74] 0
*RES
1 *35110:LO la_data_out[74] 23.6571 
*END

*D_NET *392 0.000675535
*CONN
*P la_data_out[75] O
*I *35111:LO O *D sky130_fd_sc_hd__conb_1
*CAP
1 la_data_out[75] 0.000242319
2 *35111:LO 0.000242319
3 la_data_out[75] la_data_out[80] 9.54485e-05
4 io_oeb[5] la_data_out[75] 9.54485e-05
*RES
1 *35111:LO la_data_out[75] 20.0163 
*END

*D_NET *393 0.000618607
*CONN
*P la_data_out[76] O
*I *35112:LO O *D sky130_fd_sc_hd__conb_1
*CAP
1 la_data_out[76] 0.000280718
2 *35112:LO 0.000280718
3 la_data_out[76] *35313:A 2.99915e-05
4 io_out[12] la_data_out[76] 2.71788e-05
5 *7:13 la_data_out[76] 0
*RES
1 *35112:LO la_data_out[76] 20.891 
*END

*D_NET *394 0.000501599
*CONN
*P la_data_out[77] O
*I *35113:LO O *D sky130_fd_sc_hd__conb_1
*CAP
1 la_data_out[77] 0.000162781
2 *35113:LO 0.000162781
3 la_data_out[36] la_data_out[77] 9.28756e-05
4 la_data_out[64] la_data_out[77] 8.31622e-05
*RES
1 *35113:LO la_data_out[77] 18.1949 
*END

*D_NET *395 0.000990337
*CONN
*P la_data_out[78] O
*I *35114:LO O *D sky130_fd_sc_hd__conb_1
*CAP
1 la_data_out[78] 0.000495168
2 *35114:LO 0.000495168
3 io_oeb[31] la_data_out[78] 0
4 la_data_out[47] la_data_out[78] 0
*RES
1 *35114:LO la_data_out[78] 23.6571 
*END

*D_NET *396 0.000606296
*CONN
*P la_data_out[79] O
*I *35115:LO O *D sky130_fd_sc_hd__conb_1
*CAP
1 la_data_out[79] 0.000204787
2 *35115:LO 0.000204787
3 la_data_out[79] wbs_dat_o[22] 2.25951e-05
4 la_data_out[79] *676:10 1.01912e-05
5 la_data_out[61] la_data_out[79] 0.000163937
*RES
1 *35115:LO la_data_out[79] 18.3955 
*END

*D_NET *397 0.000684287
*CONN
*P la_data_out[7] O
*I *35295:LO O *D sky130_fd_sc_hd__conb_1
*CAP
1 la_data_out[7] 0.000247981
2 *35295:LO 0.000247981
3 la_data_out[3] la_data_out[7] 9.28756e-05
4 la_data_out[62] la_data_out[7] 9.54485e-05
*RES
1 *35295:LO la_data_out[7] 20.0163 
*END

*D_NET *398 0.000524925
*CONN
*P la_data_out[80] O
*I *35116:LO O *D sky130_fd_sc_hd__conb_1
*CAP
1 la_data_out[80] 0.000173157
2 *35116:LO 0.000173157
3 io_out[18] la_data_out[80] 8.31622e-05
4 la_data_out[75] la_data_out[80] 9.54485e-05
*RES
1 *35116:LO la_data_out[80] 18.4985 
*END

*D_NET *399 0.000486988
*CONN
*P la_data_out[81] O
*I *35117:LO O *D sky130_fd_sc_hd__conb_1
*CAP
1 la_data_out[81] 0.000153845
2 *35117:LO 0.000153845
3 intr_vec_o[15] la_data_out[81] 8.38509e-05
4 la_data_out[115] la_data_out[81] 9.54485e-05
*RES
1 *35117:LO la_data_out[81] 18.1949 
*END

*D_NET *400 0.000990337
*CONN
*P la_data_out[82] O
*I *35118:LO O *D sky130_fd_sc_hd__conb_1
*CAP
1 la_data_out[82] 0.000495168
2 *35118:LO 0.000495168
3 la_data_out[82] wbs_dat_o[24] 0
4 io_out[21] la_data_out[82] 0
*RES
1 *35118:LO la_data_out[82] 23.6571 
*END

*D_NET *401 0.00062397
*CONN
*P la_data_out[83] O
*I *35119:LO O *D sky130_fd_sc_hd__conb_1
*CAP
1 la_data_out[83] 0.000217823
2 *35119:LO 0.000217823
3 io_out[10] la_data_out[83] 9.54485e-05
4 la_data_out[14] la_data_out[83] 9.28756e-05
*RES
1 *35119:LO la_data_out[83] 19.4092 
*END

*D_NET *402 0.000732252
*CONN
*P la_data_out[84] O
*I *35120:LO O *D sky130_fd_sc_hd__conb_1
*CAP
1 la_data_out[84] 0.000292817
2 *35120:LO 0.000292817
3 la_data_out[12] la_data_out[84] 2.25951e-05
4 *83:7 la_data_out[84] 0.000124023
5 *83:9 la_data_out[84] 0
*RES
1 *35120:LO la_data_out[84] 19.6097 
*END

*D_NET *403 0.00048576
*CONN
*P la_data_out[85] O
*I *35121:LO O *D sky130_fd_sc_hd__conb_1
*CAP
1 la_data_out[85] 0.000153231
2 *35121:LO 0.000153231
3 la_data_out[85] *683:12 0
4 la_data_out[22] la_data_out[85] 8.38509e-05
5 *35040:A la_data_out[85] 9.54485e-05
*RES
1 *35121:LO la_data_out[85] 18.1949 
*END

*D_NET *404 0.000815895
*CONN
*P la_data_out[86] O
*I *35122:LO O *D sky130_fd_sc_hd__conb_1
*CAP
1 la_data_out[86] 0.000285358
2 *35122:LO 0.000285358
3 la_data_out[86] *676:10 3.37e-05
4 la_data_out[107] la_data_out[86] 0.000113492
5 la_data_out[71] la_data_out[86] 9.7988e-05
*RES
1 *35122:LO la_data_out[86] 19.0026 
*END

*D_NET *405 0.000990337
*CONN
*P la_data_out[87] O
*I *35123:LO O *D sky130_fd_sc_hd__conb_1
*CAP
1 la_data_out[87] 0.000495168
2 *35123:LO 0.000495168
3 la_data_out[87] wbs_dat_o[28] 0
4 io_oeb[31] la_data_out[87] 0
*RES
1 *35123:LO la_data_out[87] 23.6571 
*END

*D_NET *406 0.000691348
*CONN
*P la_data_out[88] O
*I *35124:LO O *D sky130_fd_sc_hd__conb_1
*CAP
1 la_data_out[88] 0.000256369
2 *35124:LO 0.000256369
3 io_oeb[35] la_data_out[88] 9.54485e-05
4 io_out[36] la_data_out[88] 8.31622e-05
*RES
1 *35124:LO la_data_out[88] 18.1949 
*END

*D_NET *407 0.000490836
*CONN
*P la_data_out[89] O
*I *35125:LO O *D sky130_fd_sc_hd__conb_1
*CAP
1 la_data_out[89] 0.000152639
2 *35125:LO 0.000152639
3 la_data_out[89] la_data_out[99] 8.38509e-05
4 la_data_out[89] *35317:A 6.2589e-06
5 la_data_out[126] la_data_out[89] 9.54485e-05
*RES
1 *35125:LO la_data_out[89] 18.1949 
*END

*D_NET *408 0.000990337
*CONN
*P la_data_out[8] O
*I *35296:LO O *D sky130_fd_sc_hd__conb_1
*CAP
1 la_data_out[8] 0.000495168
2 *35296:LO 0.000495168
3 intr_vec_o[3] la_data_out[8] 0
4 la_data_out[40] la_data_out[8] 0
*RES
1 *35296:LO la_data_out[8] 23.6571 
*END

*D_NET *409 0.000990337
*CONN
*P la_data_out[90] O
*I *35126:LO O *D sky130_fd_sc_hd__conb_1
*CAP
1 la_data_out[90] 0.000495168
2 *35126:LO 0.000495168
3 *15:9 la_data_out[90] 0
*RES
1 *35126:LO la_data_out[90] 23.6571 
*END

*D_NET *410 0.000621695
*CONN
*P la_data_out[91] O
*I *35127:LO O *D sky130_fd_sc_hd__conb_1
*CAP
1 la_data_out[91] 0.000214687
2 *35127:LO 0.000214687
3 la_data_out[91] wbs_dat_o[25] 2.25951e-05
4 la_data_out[91] *35332:A 5.7903e-06
5 la_data_out[105] la_data_out[91] 0.000163937
*RES
1 *35127:LO la_data_out[91] 18.3955 
*END

*D_NET *411 0.00101252
*CONN
*P la_data_out[92] O
*I *35128:LO O *D sky130_fd_sc_hd__conb_1
*CAP
1 la_data_out[92] 0.000506258
2 *35128:LO 0.000506258
3 la_data_out[73] la_data_out[92] 0
4 *50:9 la_data_out[92] 0
*RES
1 *35128:LO la_data_out[92] 23.6571 
*END

*D_NET *412 0.000722887
*CONN
*P la_data_out[93] O
*I *35129:LO O *D sky130_fd_sc_hd__conb_1
*CAP
1 la_data_out[93] 0.000284972
2 *35129:LO 0.000284972
3 la_data_out[1] la_data_out[93] 7.64712e-05
4 la_data_out[21] la_data_out[93] 7.64712e-05
*RES
1 *35129:LO la_data_out[93] 20.3199 
*END

*D_NET *413 0.00101496
*CONN
*P la_data_out[94] O
*I *35130:LO O *D sky130_fd_sc_hd__conb_1
*CAP
1 la_data_out[94] 0.000507479
2 *35130:LO 0.000507479
3 la_data_out[123] la_data_out[94] 0
4 la_data_out[74] la_data_out[94] 0
*RES
1 *35130:LO la_data_out[94] 23.6571 
*END

*D_NET *414 0.000689739
*CONN
*P la_data_out[95] O
*I *35131:LO O *D sky130_fd_sc_hd__conb_1
*CAP
1 la_data_out[95] 0.000269976
2 *35131:LO 0.000269976
3 intr_vec_o[10] la_data_out[95] 2.25951e-05
4 io_out[31] la_data_out[95] 0.000127193
5 *83:9 la_data_out[95] 0
*RES
1 *35131:LO la_data_out[95] 20.0163 
*END

*D_NET *415 0.000990337
*CONN
*P la_data_out[96] O
*I *35132:LO O *D sky130_fd_sc_hd__conb_1
*CAP
1 la_data_out[96] 0.000495168
2 *35132:LO 0.000495168
3 intr_vec_o[4] la_data_out[96] 0
4 io_oeb[7] la_data_out[96] 0
*RES
1 *35132:LO la_data_out[96] 23.6571 
*END

*D_NET *416 0.000585001
*CONN
*P la_data_out[97] O
*I *35133:LO O *D sky130_fd_sc_hd__conb_1
*CAP
1 la_data_out[97] 0.000200165
2 *35133:LO 0.000200165
3 intr_vec_o[14] la_data_out[97] 8.6683e-05
4 intr_vec_o[18] la_data_out[97] 9.7988e-05
*RES
1 *35133:LO la_data_out[97] 18.3955 
*END

*D_NET *417 0.000733844
*CONN
*P la_data_out[98] O
*I *35134:LO O *D sky130_fd_sc_hd__conb_1
*CAP
1 la_data_out[98] 0.000277849
2 *35134:LO 0.000277849
3 la_data_out[98] wbs_dat_o[29] 0.000124023
4 la_data_out[98] *676:10 3.15282e-05
5 la_data_out[61] la_data_out[98] 2.25951e-05
*RES
1 *35134:LO la_data_out[98] 19.0026 
*END

*D_NET *418 0.00049574
*CONN
*P la_data_out[99] O
*I *35135:LO O *D sky130_fd_sc_hd__conb_1
*CAP
1 la_data_out[99] 0.000159507
2 *35135:LO 0.000159507
3 la_data_out[37] la_data_out[99] 9.28756e-05
4 la_data_out[89] la_data_out[99] 8.38509e-05
*RES
1 *35135:LO la_data_out[99] 18.1949 
*END

*D_NET *419 0.000553562
*CONN
*P la_data_out[9] O
*I *35297:LO O *D sky130_fd_sc_hd__conb_1
*CAP
1 la_data_out[9] 0.000169888
2 *35297:LO 0.000169888
3 la_data_out[9] *35316:A 2.28904e-05
4 la_data_out[18] la_data_out[9] 9.54485e-05
5 la_data_out[6] la_data_out[9] 9.54485e-05
*RES
1 *35297:LO la_data_out[9] 18.8021 
*END

*D_NET *548 0.00117966
*CONN
*P plic_irq_i I
*I *35060:A I *D sky130_fd_sc_hd__clkbuf_1
*CAP
1 plic_irq_i 0.000514937
2 *35060:A 0.000514937
3 *35060:A user_irq[0] 2.25951e-05
4 *35060:A *676:10 0
5 clk_o *35060:A 0.000127193
*RES
1 plic_irq_i *35060:A 21.0406 
*END

*D_NET *549 0.00073161
*CONN
*P rst_no O
*I *35327:X O *D sky130_fd_sc_hd__buf_2
*CAP
1 rst_no 0.000305514
2 *35327:X 0.000305514
3 io_oeb[25] rst_no 9.7988e-05
4 io_out[22] rst_no 2.25951e-05
*RES
1 *35327:X rst_no 19.0747 
*END

*D_NET *550 0.0385584
*CONN
*P spi_cs_ni I
*I *35055:A I *D sky130_fd_sc_hd__clkbuf_2
*I *693:DIODE I *D sky130_fd_sc_hd__diode_2
*CAP
1 spi_cs_ni 0.000349126
2 *35055:A 0.000109771
3 *693:DIODE 0
4 *550:29 0.0168566
5 *550:27 0.0182473
6 *550:23 0.00184956
7 *550:23 wbs_ack_o 5.64561e-05
8 *550:23 wbs_dat_o[5] 3.54967e-05
9 *550:23 *555:19 0
10 *550:27 *555:19 0.00105408
*RES
1 spi_cs_ni *550:23 17.1192 
2 *550:23 *550:27 39.8393 
3 *550:27 *550:29 258.464 
4 *550:29 *693:DIODE 9.3 
5 *550:29 *35055:A 11.0679 
*END

*D_NET *551 0.000580342
*CONN
*P spi_miso_o O
*I *35328:X O *D sky130_fd_sc_hd__buf_2
*CAP
1 spi_miso_o 0.000176151
2 *35328:X 0.000176151
3 io_out[25] spi_miso_o 0.000114549
4 la_data_out[28] spi_miso_o 0.000113492
*RES
1 *35328:X spi_miso_o 18.267 
*END

*D_NET *552 0.00143315
*CONN
*P spi_mosi_i I
*I *35056:A I *D sky130_fd_sc_hd__clkbuf_1
*CAP
1 spi_mosi_i 0.000555273
2 *35056:A 0.000555273
3 *35056:A *35325:A 0.000238165
4 io_out[23] *35056:A 2.25951e-05
5 io_out[4] *35056:A 6.18446e-05
*RES
1 spi_mosi_i *35056:A 25.9966 
*END

*D_NET *553 0.00178864
*CONN
*P spi_sclk_i I
*I *35054:A I *D sky130_fd_sc_hd__clkbuf_1
*CAP
1 spi_sclk_i 0.000894321
2 *35054:A 0.000894321
3 *35054:A uart_rx_o 0
4 *35054:A *35329:A 0
5 la_data_out[4] *35054:A 0
*RES
1 spi_sclk_i *35054:A 30.6929 
*END

*D_NET *554 0.00113656
*CONN
*P uart_rx_o O
*I *35329:X O *D sky130_fd_sc_hd__buf_2
*CAP
1 uart_rx_o 0.000568279
2 *35329:X 0.000568279
3 uart_rx_o *35322:A 0
4 io_out[2] uart_rx_o 0
5 *35054:A uart_rx_o 0
*RES
1 *35329:X uart_rx_o 25.0857 
*END

*D_NET *555 0.0361698
*CONN
*P uart_tx_i I
*I *35053:A I *D sky130_fd_sc_hd__clkbuf_2
*I *694:DIODE I *D sky130_fd_sc_hd__diode_2
*CAP
1 uart_tx_i 0.00157262
2 *35053:A 0.00012614
3 *694:DIODE 0
4 *555:21 0.0159177
5 *555:19 0.0173642
6 *555:19 wbs_dat_o[21] 3.51177e-05
7 la_data_out[114] *555:19 1.92404e-05
8 la_data_out[15] *555:19 1.73465e-05
9 la_data_out[5] *555:19 6.33226e-05
10 *550:23 *555:19 0
11 *550:27 *555:19 0.00105408
*RES
1 uart_tx_i *555:19 37.1575 
2 *555:19 *555:21 265.446 
3 *555:21 *694:DIODE 9.3 
4 *555:21 *35053:A 11.4786 
*END

*D_NET *556 0.000650515
*CONN
*P user_irq[0] O
*I *35330:X O *D sky130_fd_sc_hd__buf_2
*CAP
1 user_irq[0] 0.000246377
2 *35330:X 0.000246377
3 user_irq[0] *676:10 2.06178e-05
4 la_data_out[60] user_irq[0] 0.000114549
5 *35060:A user_irq[0] 2.25951e-05
*RES
1 *35330:X user_irq[0] 18.4675 
*END

*D_NET *557 0.000491372
*CONN
*P user_irq[1] O
*I *35164:LO O *D sky130_fd_sc_hd__conb_1
*CAP
1 user_irq[1] 0.000151088
2 *35164:LO 0.000151088
3 user_irq[1] wbs_dat_o[29] 9.54485e-05
4 user_irq[1] *676:10 9.60337e-06
5 la_data_out[68] user_irq[1] 8.41435e-05
*RES
1 *35164:LO user_irq[1] 18.1949 
*END

*D_NET *558 0.000624654
*CONN
*P user_irq[2] O
*I *35165:LO O *D sky130_fd_sc_hd__conb_1
*CAP
1 user_irq[2] 0.000289732
2 *35165:LO 0.000289732
3 io_oeb[22] user_irq[2] 2.25951e-05
4 la_data_out[35] user_irq[2] 2.25951e-05
5 *83:9 user_irq[2] 0
*RES
1 *35165:LO user_irq[2] 19.4092 
*END

*D_NET *559 0.00267607
*CONN
*P wb_clk_i I
*I *35038:A I *D sky130_fd_sc_hd__buf_2
*CAP
1 wb_clk_i 0.00126473
2 *35038:A 0.00126473
3 *35038:A wbs_dat_o[31] 0.000124023
4 io_out[13] *35038:A 0
5 la_data_out[114] *35038:A 0
6 la_data_out[19] *35038:A 2.25951e-05
*RES
1 wb_clk_i *35038:A 35.4679 
*END

*D_NET *560 0.000641241
*CONN
*P wb_rst_i I
*I *35313:A I *D sky130_fd_sc_hd__clkbuf_1
*CAP
1 wb_rst_i 0.000290629
2 *35313:A 0.000290629
3 io_oeb[25] *35313:A 2.99915e-05
4 la_data_out[76] *35313:A 2.99915e-05
5 *7:13 *35313:A 0
*RES
1 wb_rst_i *35313:A 21.1946 
*END

*D_NET *561 0.000741978
*CONN
*P wbs_ack_o O
*I *35166:LO O *D sky130_fd_sc_hd__conb_1
*CAP
1 wbs_ack_o 0.000301596
2 *35166:LO 0.000301596
3 wbs_ack_o wbs_dat_o[5] 0
4 wbs_ack_o *676:10 5.9734e-05
5 la_data_out[68] wbs_ack_o 2.25951e-05
6 *550:23 wbs_ack_o 5.64561e-05
*RES
1 *35166:LO wbs_ack_o 19.6097 
*END

*D_NET *627 0.00101043
*CONN
*P wbs_dat_o[0] O
*I *35167:LO O *D sky130_fd_sc_hd__conb_1
*CAP
1 wbs_dat_o[0] 0.000505214
2 *35167:LO 0.000505214
3 io_oeb[0] wbs_dat_o[0] 0
4 io_oeb[24] wbs_dat_o[0] 0
*RES
1 *35167:LO wbs_dat_o[0] 23.6571 
*END

*D_NET *628 0.000635983
*CONN
*P wbs_dat_o[10] O
*I *35177:LO O *D sky130_fd_sc_hd__conb_1
*CAP
1 wbs_dat_o[10] 0.00027411
2 *35177:LO 0.00027411
3 la_data_out[52] wbs_dat_o[10] 2.99915e-05
4 *7:11 wbs_dat_o[10] 5.77714e-05
5 *7:13 wbs_dat_o[10] 0
*RES
1 *35177:LO wbs_dat_o[10] 20.891 
*END

*D_NET *629 0.000737768
*CONN
*P wbs_dat_o[11] O
*I *35178:LO O *D sky130_fd_sc_hd__conb_1
*CAP
1 wbs_dat_o[11] 0.000343997
2 *35178:LO 0.000343997
3 wbs_dat_o[11] *676:10 0
4 la_data_out[24] wbs_dat_o[11] 2.25951e-05
5 la_data_out[53] wbs_dat_o[11] 2.71788e-05
*RES
1 *35178:LO wbs_dat_o[11] 21.8017 
*END

*D_NET *630 0.000708958
*CONN
*P wbs_dat_o[12] O
*I *35179:LO O *D sky130_fd_sc_hd__conb_1
*CAP
1 wbs_dat_o[12] 0.000216604
2 *35179:LO 0.000216604
3 wbs_dat_o[12] wbs_dat_o[22] 9.28688e-05
4 wbs_dat_o[12] *676:10 8.74324e-05
5 la_data_out[127] wbs_dat_o[12] 9.54485e-05
*RES
1 *35179:LO wbs_dat_o[12] 20.0163 
*END

*D_NET *631 0.000490685
*CONN
*P wbs_dat_o[13] O
*I *35180:LO O *D sky130_fd_sc_hd__conb_1
*CAP
1 wbs_dat_o[13] 0.000191973
2 *35180:LO 0.000191973
3 intr_vec_o[20] wbs_dat_o[13] 2.25951e-05
4 io_oeb[37] wbs_dat_o[13] 8.41435e-05
*RES
1 *35180:LO wbs_dat_o[13] 18.1949 
*END

*D_NET *632 0.000994866
*CONN
*P wbs_dat_o[14] O
*I *35181:LO O *D sky130_fd_sc_hd__conb_1
*CAP
1 wbs_dat_o[14] 0.000497433
2 *35181:LO 0.000497433
3 intr_vec_o[19] wbs_dat_o[14] 0
4 io_oeb[3] wbs_dat_o[14] 0
*RES
1 *35181:LO wbs_dat_o[14] 23.6571 
*END

*D_NET *633 0.000708958
*CONN
*P wbs_dat_o[15] O
*I *35182:LO O *D sky130_fd_sc_hd__conb_1
*CAP
1 wbs_dat_o[15] 0.000216604
2 *35182:LO 0.000216604
3 wbs_dat_o[15] *676:10 8.74324e-05
4 io_out[19] wbs_dat_o[15] 9.28688e-05
5 la_data_out[63] wbs_dat_o[15] 9.54485e-05
*RES
1 *35182:LO wbs_dat_o[15] 20.0163 
*END

*D_NET *634 0.000990337
*CONN
*P wbs_dat_o[16] O
*I *35183:LO O *D sky130_fd_sc_hd__conb_1
*CAP
1 wbs_dat_o[16] 0.000495168
2 *35183:LO 0.000495168
3 intr_vec_o[24] wbs_dat_o[16] 0
4 la_data_out[66] wbs_dat_o[16] 0
*RES
1 *35183:LO wbs_dat_o[16] 23.6571 
*END

*D_NET *635 0.000990337
*CONN
*P wbs_dat_o[17] O
*I *35184:LO O *D sky130_fd_sc_hd__conb_1
*CAP
1 wbs_dat_o[17] 0.000495168
2 *35184:LO 0.000495168
3 la_data_out[124] wbs_dat_o[17] 0
4 la_data_out[66] wbs_dat_o[17] 0
*RES
1 *35184:LO wbs_dat_o[17] 23.6571 
*END

*D_NET *636 0.00048613
*CONN
*P wbs_dat_o[18] O
*I *35185:LO O *D sky130_fd_sc_hd__conb_1
*CAP
1 wbs_dat_o[18] 0.000163076
2 *35185:LO 0.000163076
3 wbs_dat_o[18] *676:10 1.01912e-05
4 io_out[35] wbs_dat_o[18] 0.000127193
5 la_data_out[39] wbs_dat_o[18] 2.25951e-05
*RES
1 *35185:LO wbs_dat_o[18] 18.1949 
*END

*D_NET *637 0.000587922
*CONN
*P wbs_dat_o[19] O
*I *35186:LO O *D sky130_fd_sc_hd__conb_1
*CAP
1 wbs_dat_o[19] 0.000213132
2 *35186:LO 0.000213132
3 wbs_dat_o[19] *676:10 3.15282e-05
4 la_data_out[102] wbs_dat_o[19] 0.000107534
5 la_data_out[55] wbs_dat_o[19] 2.25951e-05
*RES
1 *35186:LO wbs_dat_o[19] 18.8021 
*END

*D_NET *638 0.00111707
*CONN
*P wbs_dat_o[1] O
*I *35168:LO O *D sky130_fd_sc_hd__conb_1
*CAP
1 wbs_dat_o[1] 0.000558534
2 *35168:LO 0.000558534
3 io_oeb[29] wbs_dat_o[1] 0
4 la_data_out[54] wbs_dat_o[1] 0
*RES
1 *35168:LO wbs_dat_o[1] 24.6036 
*END

*D_NET *639 0.000990337
*CONN
*P wbs_dat_o[20] O
*I *35187:LO O *D sky130_fd_sc_hd__conb_1
*CAP
1 wbs_dat_o[20] 0.000495168
2 *35187:LO 0.000495168
3 intr_vec_o[7] wbs_dat_o[20] 0
4 io_out[34] wbs_dat_o[20] 0
*RES
1 *35187:LO wbs_dat_o[20] 23.6571 
*END

*D_NET *640 0.000742375
*CONN
*P wbs_dat_o[21] O
*I *35188:LO O *D sky130_fd_sc_hd__conb_1
*CAP
1 wbs_dat_o[21] 0.000294437
2 *35188:LO 0.000294437
3 wbs_dat_o[21] *676:10 3.15282e-05
4 la_data_out[114] wbs_dat_o[21] 8.68554e-05
5 la_data_out[5] wbs_dat_o[21] 0
6 *555:19 wbs_dat_o[21] 3.51177e-05
*RES
1 *35188:LO wbs_dat_o[21] 19.0026 
*END

*D_NET *641 0.000576755
*CONN
*P wbs_dat_o[22] O
*I *35189:LO O *D sky130_fd_sc_hd__conb_1
*CAP
1 wbs_dat_o[22] 0.000214881
2 *35189:LO 0.000214881
3 wbs_dat_o[22] *676:10 3.15282e-05
4 la_data_out[79] wbs_dat_o[22] 2.25951e-05
5 wbs_dat_o[12] wbs_dat_o[22] 9.28688e-05
*RES
1 *35189:LO wbs_dat_o[22] 18.8021 
*END

*D_NET *642 0.000570009
*CONN
*P wbs_dat_o[23] O
*I *35190:LO O *D sky130_fd_sc_hd__conb_1
*CAP
1 wbs_dat_o[23] 0.000210111
2 *35190:LO 0.000210111
3 la_data_out[104] wbs_dat_o[23] 0.000127193
4 la_data_out[57] wbs_dat_o[23] 2.25951e-05
5 *83:9 wbs_dat_o[23] 0
*RES
1 *35190:LO wbs_dat_o[23] 18.8021 
*END

*D_NET *643 0.000990337
*CONN
*P wbs_dat_o[24] O
*I *35191:LO O *D sky130_fd_sc_hd__conb_1
*CAP
1 wbs_dat_o[24] 0.000495168
2 *35191:LO 0.000495168
3 la_data_out[56] wbs_dat_o[24] 0
4 la_data_out[82] wbs_dat_o[24] 0
*RES
1 *35191:LO wbs_dat_o[24] 23.6571 
*END

*D_NET *644 0.000653458
*CONN
*P wbs_dat_o[25] O
*I *35192:LO O *D sky130_fd_sc_hd__conb_1
*CAP
1 wbs_dat_o[25] 0.000286248
2 *35192:LO 0.000286248
3 wbs_dat_o[25] *35332:A 3.5771e-05
4 io_oeb[37] wbs_dat_o[25] 0
5 io_out[0] wbs_dat_o[25] 2.25951e-05
6 la_data_out[91] wbs_dat_o[25] 2.25951e-05
*RES
1 *35192:LO wbs_dat_o[25] 19.4092 
*END

*D_NET *645 0.00118689
*CONN
*P wbs_dat_o[26] O
*I *35193:LO O *D sky130_fd_sc_hd__conb_1
*CAP
1 wbs_dat_o[26] 0.000593443
2 *35193:LO 0.000593443
3 intr_vec_o[12] wbs_dat_o[26] 0
4 io_out[34] wbs_dat_o[26] 0
*RES
1 *35193:LO wbs_dat_o[26] 25.425 
*END

*D_NET *646 0.000485394
*CONN
*P wbs_dat_o[27] O
*I *35194:LO O *D sky130_fd_sc_hd__conb_1
*CAP
1 wbs_dat_o[27] 0.000164292
2 *35194:LO 0.000164292
3 wbs_dat_o[27] *676:10 1.01912e-05
4 la_data_out[55] wbs_dat_o[27] 0.000124023
5 la_data_out[71] wbs_dat_o[27] 2.25951e-05
*RES
1 *35194:LO wbs_dat_o[27] 18.1949 
*END

*D_NET *647 0.000990337
*CONN
*P wbs_dat_o[28] O
*I *35195:LO O *D sky130_fd_sc_hd__conb_1
*CAP
1 wbs_dat_o[28] 0.000495168
2 *35195:LO 0.000495168
3 la_data_out[2] wbs_dat_o[28] 0
4 la_data_out[87] wbs_dat_o[28] 0
*RES
1 *35195:LO wbs_dat_o[28] 23.6571 
*END

*D_NET *648 0.000741111
*CONN
*P wbs_dat_o[29] O
*I *35196:LO O *D sky130_fd_sc_hd__conb_1
*CAP
1 wbs_dat_o[29] 0.000230953
2 *35196:LO 0.000230953
3 wbs_dat_o[29] *676:10 5.9734e-05
4 la_data_out[98] wbs_dat_o[29] 0.000124023
5 user_irq[1] wbs_dat_o[29] 9.54485e-05
*RES
1 *35196:LO wbs_dat_o[29] 19.4092 
*END

*D_NET *649 0.00052092
*CONN
*P wbs_dat_o[2] O
*I *35169:LO O *D sky130_fd_sc_hd__conb_1
*CAP
1 wbs_dat_o[2] 0.000161642
2 *35169:LO 0.000161642
3 la_data_out[12] wbs_dat_o[2] 8.41435e-05
4 la_data_out[50] wbs_dat_o[2] 0.000113492
*RES
1 *35169:LO wbs_dat_o[2] 18.1949 
*END

*D_NET *650 0.000730911
*CONN
*P wbs_dat_o[30] O
*I *35197:LO O *D sky130_fd_sc_hd__conb_1
*CAP
1 wbs_dat_o[30] 0.000276587
2 *35197:LO 0.000276587
3 wbs_dat_o[30] *676:10 5.9734e-05
4 io_oeb[18] wbs_dat_o[30] 9.54083e-05
5 io_out[37] wbs_dat_o[30] 2.25951e-05
*RES
1 *35197:LO wbs_dat_o[30] 19.6097 
*END

*D_NET *651 0.000600232
*CONN
*P wbs_dat_o[31] O
*I *35198:LO O *D sky130_fd_sc_hd__conb_1
*CAP
1 wbs_dat_o[31] 0.000194763
2 *35198:LO 0.000194763
3 la_data_out[48] wbs_dat_o[31] 8.6683e-05
4 *35038:A wbs_dat_o[31] 0.000124023
*RES
1 *35198:LO wbs_dat_o[31] 18.3955 
*END

*D_NET *652 0.000594491
*CONN
*P wbs_dat_o[3] O
*I *35170:LO O *D sky130_fd_sc_hd__conb_1
*CAP
1 wbs_dat_o[3] 0.00020398
2 *35170:LO 0.00020398
3 wbs_dat_o[3] wbs_dat_o[8] 2.25951e-05
4 la_data_out[110] wbs_dat_o[3] 0.000163937
*RES
1 *35170:LO wbs_dat_o[3] 18.3955 
*END

*D_NET *653 0.000633718
*CONN
*P wbs_dat_o[4] O
*I *35171:LO O *D sky130_fd_sc_hd__conb_1
*CAP
1 wbs_dat_o[4] 0.000294264
2 *35171:LO 0.000294264
3 intr_vec_o[8] wbs_dat_o[4] 2.25951e-05
4 io_out[25] wbs_dat_o[4] 2.25951e-05
5 *83:9 wbs_dat_o[4] 0
*RES
1 *35171:LO wbs_dat_o[4] 19.4092 
*END

*D_NET *654 0.000584321
*CONN
*P wbs_dat_o[5] O
*I *35172:LO O *D sky130_fd_sc_hd__conb_1
*CAP
1 wbs_dat_o[5] 0.000198659
2 *35172:LO 0.000198659
3 wbs_dat_o[5] *676:10 3.69573e-05
4 la_data_out[5] wbs_dat_o[5] 0.000114549
5 wbs_ack_o wbs_dat_o[5] 0
6 *550:23 wbs_dat_o[5] 3.54967e-05
*RES
1 *35172:LO wbs_dat_o[5] 18.8021 
*END

*D_NET *655 0.000629572
*CONN
*P wbs_dat_o[6] O
*I *35173:LO O *D sky130_fd_sc_hd__conb_1
*CAP
1 wbs_dat_o[6] 0.000255764
2 *35173:LO 0.000255764
3 wbs_dat_o[6] wbs_dat_o[7] 9.54485e-05
4 la_data_out[110] wbs_dat_o[6] 2.25951e-05
5 *83:9 wbs_dat_o[6] 0
*RES
1 *35173:LO wbs_dat_o[6] 19.4092 
*END

*D_NET *656 0.000615219
*CONN
*P wbs_dat_o[7] O
*I *35174:LO O *D sky130_fd_sc_hd__conb_1
*CAP
1 wbs_dat_o[7] 0.000212161
2 *35174:LO 0.000212161
3 la_data_out[70] wbs_dat_o[7] 9.54485e-05
4 wbs_dat_o[6] wbs_dat_o[7] 9.54485e-05
5 *83:9 wbs_dat_o[7] 0
*RES
1 *35174:LO wbs_dat_o[7] 19.4092 
*END

*D_NET *657 0.000569273
*CONN
*P wbs_dat_o[8] O
*I *35175:LO O *D sky130_fd_sc_hd__conb_1
*CAP
1 wbs_dat_o[8] 0.000211328
2 *35175:LO 0.000211328
3 intr_vec_o[20] wbs_dat_o[8] 0.000124023
4 wbs_dat_o[3] wbs_dat_o[8] 2.25951e-05
5 *83:9 wbs_dat_o[8] 0
*RES
1 *35175:LO wbs_dat_o[8] 18.8021 
*END

*D_NET *658 0.000487496
*CONN
*P wbs_dat_o[9] O
*I *35176:LO O *D sky130_fd_sc_hd__conb_1
*CAP
1 wbs_dat_o[9] 0.000190724
2 *35176:LO 0.000190724
3 intr_vec_o[18] wbs_dat_o[9] 2.25951e-05
4 la_data_out[70] wbs_dat_o[9] 8.34529e-05
*RES
1 *35176:LO wbs_dat_o[9] 18.1949 
*END

*D_NET *665 0.000997205
*CONN
*I *35037:A I *D sky130_fd_sc_hd__inv_2
*I *35313:X O *D sky130_fd_sc_hd__clkbuf_1
*CAP
1 *35037:A 0.000498603
2 *35313:X 0.000498603
*RES
1 *35313:X *35037:A 34.6714 
*END

*D_NET *666 0.00452439
*CONN
*I *35314:A I *D sky130_fd_sc_hd__buf_2
*I *35042:X O *D sky130_fd_sc_hd__clkbuf_1
*CAP
1 *35314:A 0
2 *35042:X 0.00181917
3 *666:12 0.00181917
4 intr_vec_o[3] *666:12 3.40128e-05
5 io_out[16] *666:12 0
6 *35059:A *666:12 0.0006731
7 *50:11 *666:12 0.000178946
*RES
1 *35042:X *666:12 45.675 
2 *666:12 *35314:A 9.3 
*END

*D_NET *667 0.000726521
*CONN
*I *35315:A I *D sky130_fd_sc_hd__buf_2
*I *35043:X O *D sky130_fd_sc_hd__clkbuf_1
*CAP
1 *35315:A 0.000295774
2 *35043:X 0.000295774
3 intr_vec_o[4] *35315:A 3.40128e-05
4 *35043:A *35315:A 0
5 *4:13 *35315:A 0.00010096
*RES
1 *35043:X *35315:A 32.9214 
*END

*D_NET *668 0.0022822
*CONN
*I *35316:A I *D sky130_fd_sc_hd__buf_2
*I *35044:X O *D sky130_fd_sc_hd__clkbuf_1
*CAP
1 *35316:A 0.00104789
2 *35044:X 0.00104789
3 intr_vec_o[5] *35316:A 6.27457e-05
4 la_data_out[18] *35316:A 2.8583e-05
5 la_data_out[67] *35316:A 9.15186e-06
6 la_data_out[6] *35316:A 6.30405e-05
7 la_data_out[9] *35316:A 2.28904e-05
*RES
1 *35044:X *35316:A 46.7071 
*END

*D_NET *669 0.000915776
*CONN
*I *35317:A I *D sky130_fd_sc_hd__buf_2
*I *35045:X O *D sky130_fd_sc_hd__clkbuf_1
*CAP
1 *35317:A 0.000433276
2 *35045:X 0.000433276
3 la_data_out[126] *35317:A 4.29654e-05
4 la_data_out[89] *35317:A 6.2589e-06
*RES
1 *35045:X *35317:A 34.2607 
*END

*D_NET *670 0.00078017
*CONN
*I *35318:A I *D sky130_fd_sc_hd__buf_2
*I *35046:X O *D sky130_fd_sc_hd__clkbuf_1
*CAP
1 *35318:A 0.000228652
2 *35046:X 0.000228652
3 intr_vec_o[7] *35318:A 3.40128e-05
4 *35046:A *35318:A 0.000187893
5 *4:13 *35318:A 0.00010096
*RES
1 *35046:X *35318:A 32.9214 
*END

*D_NET *671 0.000896566
*CONN
*I *35319:A I *D sky130_fd_sc_hd__buf_2
*I *35047:X O *D sky130_fd_sc_hd__clkbuf_1
*CAP
1 *35319:A 0.000400872
2 *35047:X 0.000400872
3 la_data_out[112] *35319:A 5.7903e-06
4 *35047:A *35319:A 8.90314e-05
5 *83:9 *35319:A 0
*RES
1 *35047:X *35319:A 34.1536 
*END

*D_NET *672 0.00142445
*CONN
*I *35320:A I *D sky130_fd_sc_hd__buf_2
*I *35048:X O *D sky130_fd_sc_hd__clkbuf_1
*CAP
1 *35320:A 0.000601831
2 *35048:X 0.000601831
3 *35320:A *35333:A 4.05411e-05
4 *35320:A *675:8 0
5 intr_vec_o[9] *35320:A 2.89114e-05
6 io_out[26] *35320:A 0.000151333
7 *35050:A *35320:A 0
*RES
1 *35048:X *35320:A 38.3679 
*END

*D_NET *673 0.0239531
*CONN
*I *35321:A I *D sky130_fd_sc_hd__buf_2
*I *35053:X O *D sky130_fd_sc_hd__clkbuf_2
*CAP
1 *35321:A 0.00139545
2 *35053:X 0
3 *673:8 0.0117421
4 *673:6 0.0103466
5 intr_vec_o[17] *35321:A 5.52302e-05
6 intr_vec_o[29] *35321:A 5.52302e-05
7 io_oeb[17] *35321:A 1.92905e-05
8 io_out[1] *35321:A 0.000173467
9 io_out[20] *35321:A 5.52302e-05
10 io_out[24] *35321:A 5.52302e-05
11 la_data_out[0] *35321:A 5.52302e-05
*RES
1 *35053:X *673:6 13.8 
2 *673:6 *673:8 191.071 
3 *673:8 *35321:A 39.1214 
*END

*D_NET *674 0.00101433
*CONN
*I *35322:A I *D sky130_fd_sc_hd__buf_2
*I *35054:X O *D sky130_fd_sc_hd__clkbuf_1
*CAP
1 *35322:A 0.00049016
2 *35054:X 0.00049016
3 io_out[2] *35322:A 3.40128e-05
4 uart_rx_o *35322:A 0
*RES
1 *35054:X *35322:A 34.975 
*END

*D_NET *675 0.0189455
*CONN
*I *35323:A I *D sky130_fd_sc_hd__buf_2
*I *35055:X O *D sky130_fd_sc_hd__clkbuf_2
*CAP
1 *35323:A 0.000258675
2 *35055:X 0
3 *675:8 0.00937727
4 *675:6 0.00911859
5 *675:8 *35333:A 0.000117468
6 intr_vec_o[11] *35323:A 5.41609e-05
7 io_out[3] *35323:A 1.92905e-05
8 *35320:A *675:8 0
*RES
1 *35055:X *675:6 13.8 
2 *675:6 *675:8 169.214 
3 *675:8 *35323:A 18.4607 
*END

*D_NET *676 0.0149658
*CONN
*I *35324:A I *D sky130_fd_sc_hd__buf_1
*I *35038:X O *D sky130_fd_sc_hd__buf_2
*CAP
1 *35324:A 0
2 *35038:X 0.000295901
3 *676:10 0.00664813
4 *676:8 0.00694403
5 *676:10 *35330:A 0
6 clk_o *676:10 2.34423e-05
7 io_oeb[18] *676:10 3.69573e-05
8 io_oeb[19] *676:10 3.15282e-05
9 io_oeb[2] *676:10 1.01912e-05
10 io_out[19] *676:10 1.01912e-05
11 io_out[32] *676:10 3.69573e-05
12 io_out[35] *676:10 1.01912e-05
13 io_out[37] *676:10 1.01912e-05
14 la_data_out[102] *676:10 5.7547e-05
15 la_data_out[107] *676:10 9.60337e-06
16 la_data_out[114] *676:10 9.60337e-06
17 la_data_out[127] *676:10 1.01912e-05
18 la_data_out[24] *676:10 9.60337e-06
19 la_data_out[31] *676:10 9.60337e-06
20 la_data_out[32] *676:10 9.60337e-06
21 la_data_out[39] *676:10 3.15282e-05
22 la_data_out[53] *676:10 3.69573e-05
23 la_data_out[55] *676:10 1.01912e-05
24 la_data_out[5] *676:10 9.60337e-06
25 la_data_out[60] *676:10 9.60337e-06
26 la_data_out[61] *676:10 9.60337e-06
27 la_data_out[63] *676:10 3.15282e-05
28 la_data_out[68] *676:10 1.01912e-05
29 la_data_out[71] *676:10 3.15282e-05
30 la_data_out[79] *676:10 1.01912e-05
31 la_data_out[86] *676:10 3.37e-05
32 la_data_out[98] *676:10 3.15282e-05
33 user_irq[0] *676:10 2.06178e-05
34 user_irq[1] *676:10 9.60337e-06
35 wbs_ack_o *676:10 5.9734e-05
36 wbs_dat_o[11] *676:10 0
37 wbs_dat_o[12] *676:10 8.74324e-05
38 wbs_dat_o[15] *676:10 8.74324e-05
39 wbs_dat_o[18] *676:10 1.01912e-05
40 wbs_dat_o[19] *676:10 3.15282e-05
41 wbs_dat_o[21] *676:10 3.15282e-05
42 wbs_dat_o[22] *676:10 3.15282e-05
43 wbs_dat_o[27] *676:10 1.01912e-05
44 wbs_dat_o[29] *676:10 5.9734e-05
45 wbs_dat_o[30] *676:10 5.9734e-05
46 wbs_dat_o[5] *676:10 3.69573e-05
47 *35060:A *676:10 0
*RES
1 *35038:X *676:8 17.2107 
2 *676:8 *676:10 127.929 
3 *676:10 *35324:A 13.8 
*END

*D_NET *677 0.000473494
*CONN
*I *35325:A I *D sky130_fd_sc_hd__buf_2
*I *35056:X O *D sky130_fd_sc_hd__clkbuf_1
*CAP
1 *35325:A 0.000117665
2 *35056:X 0.000117665
3 *35056:A *35325:A 0.000238165
*RES
1 *35056:X *35325:A 21.5107 
*END

*D_NET *678 0.000602044
*CONN
*I *35326:A I *D sky130_fd_sc_hd__buf_2
*I *35057:X O *D sky130_fd_sc_hd__clkbuf_1
*CAP
1 *35326:A 0.000249432
2 *35057:X 0.000249432
3 *35326:A *35334:A 0
4 intr_vec_o[12] *35326:A 4.25523e-05
5 io_out[6] *35326:A 6.06278e-05
*RES
1 *35057:X *35326:A 32.5107 
*END

*D_NET *679 0.000440377
*CONN
*I *35327:A I *D sky130_fd_sc_hd__buf_2
*I *35037:Y O *D sky130_fd_sc_hd__inv_2
*CAP
1 *35327:A 0.000220188
2 *35037:Y 0.000220188
*RES
1 *35037:Y *35327:A 22.0286 
*END

*D_NET *680 0.000606374
*CONN
*I *35328:A I *D sky130_fd_sc_hd__buf_2
*I *35058:X O *D sky130_fd_sc_hd__clkbuf_1
*CAP
1 *35328:A 0.000300292
2 *35058:X 0.000300292
3 io_out[25] *35328:A 5.7903e-06
4 *692:DIODE *35328:A 0
*RES
1 *35058:X *35328:A 31.725 
*END

*D_NET *681 0.00260501
*CONN
*I *35329:A I *D sky130_fd_sc_hd__buf_2
*I *35059:X O *D sky130_fd_sc_hd__clkbuf_1
*CAP
1 *35329:A 0.00129738
2 *35059:X 0.00129738
3 la_data_out[4] *35329:A 1.02504e-05
4 *35054:A *35329:A 0
*RES
1 *35059:X *35329:A 45.7786 
*END

*D_NET *682 0.000461152
*CONN
*I *35330:A I *D sky130_fd_sc_hd__buf_2
*I *35060:X O *D sky130_fd_sc_hd__clkbuf_1
*CAP
1 *35330:A 0.000230576
2 *35060:X 0.000230576
3 *676:10 *35330:A 0
*RES
1 *35060:X *35330:A 31.4214 
*END

*D_NET *683 0.00386388
*CONN
*I *35331:A I *D sky130_fd_sc_hd__buf_2
*I *35039:X O *D sky130_fd_sc_hd__clkbuf_1
*CAP
1 *35331:A 0
2 *35039:X 0.00101889
3 *683:12 0.00101889
4 *683:12 *35337:A 0
5 *683:12 *688:12 0.00150364
6 intr_vec_o[2] *683:12 0
7 la_data_out[22] *683:12 0
8 la_data_out[85] *683:12 0
9 *35040:A *683:12 0.000322453
*RES
1 *35039:X *683:12 44.3893 
2 *683:12 *35331:A 9.3 
*END

*D_NET *684 0.00192772
*CONN
*I *35332:A I *D sky130_fd_sc_hd__buf_2
*I *35049:X O *D sky130_fd_sc_hd__clkbuf_1
*CAP
1 *35332:A 0.000894263
2 *35049:X 0.000894263
3 io_oeb[37] *35332:A 5.7903e-06
4 io_out[0] *35332:A 0
5 la_data_out[105] *35332:A 6.27272e-06
6 la_data_out[91] *35332:A 5.7903e-06
7 wbs_dat_o[25] *35332:A 3.5771e-05
8 *690:DIODE *35332:A 0
9 *7:17 *35332:A 8.55687e-05
10 *83:9 *35332:A 0
*RES
1 *35049:X *35332:A 43.5643 
*END

*D_NET *685 0.00128317
*CONN
*I *35333:A I *D sky130_fd_sc_hd__buf_2
*I *35050:X O *D sky130_fd_sc_hd__clkbuf_1
*CAP
1 *35333:A 0.000562579
2 *35050:X 0.000562579
3 *35320:A *35333:A 4.05411e-05
4 *675:8 *35333:A 0.000117468
*RES
1 *35050:X *35333:A 36.2071 
*END

*D_NET *686 0.000633946
*CONN
*I *35334:A I *D sky130_fd_sc_hd__buf_2
*I *35051:X O *D sky130_fd_sc_hd__clkbuf_1
*CAP
1 *35334:A 0.000284189
2 *35051:X 0.000284189
3 intr_vec_o[12] *35334:A 6.55681e-05
4 *35326:A *35334:A 0
*RES
1 *35051:X *35334:A 32.9214 
*END

*D_NET *687 0.0010862
*CONN
*I *35335:A I *D sky130_fd_sc_hd__buf_2
*I *35052:X O *D sky130_fd_sc_hd__clkbuf_1
*CAP
1 *35335:A 0.000429472
2 *35052:X 0.000429472
3 *35052:A *35335:A 0.000227254
*RES
1 *35052:X *35335:A 34.975 
*END

*D_NET *688 0.00501687
*CONN
*I *35336:A I *D sky130_fd_sc_hd__buf_2
*I *35040:X O *D sky130_fd_sc_hd__clkbuf_1
*CAP
1 *35336:A 0.000183911
2 *35040:X 0.00098547
3 *688:12 0.00116938
4 intr_vec_o[1] *688:12 0
5 io_oeb[15] *688:12 0
6 io_out[27] *688:12 0
7 *35040:A *688:12 6.05161e-06
8 *14:9 *688:12 0.00116841
9 *683:12 *688:12 0.00150364
*RES
1 *35040:X *688:12 47.4964 
2 *688:12 *35336:A 12.3 
*END

*D_NET *689 0.00147112
*CONN
*I *35337:A I *D sky130_fd_sc_hd__buf_2
*I *35041:X O *D sky130_fd_sc_hd__clkbuf_1
*CAP
1 *35337:A 0.000710776
2 *35041:X 0.000710776
3 io_oeb[23] *35337:A 8.50795e-06
4 io_oeb[30] *35337:A 8.13261e-06
5 la_data_out[106] *35337:A 3.29279e-05
6 *683:12 *35337:A 0
*RES
1 *35041:X *35337:A 39.4214 
*END
